LOCATION,Shawinigan,Quebec,Canada,Open-Meteo,000000,46.5600,-72.7700,-5.0,140.0
DESIGN CONDITIONS,0
TYPICAL/EXTREME PERIODS,0
GROUND TEMPERATURES,0
HOLIDAYS/DAYLIGHT SAVING,No,0,0,0
COMMENTS 1,Generated from Open-Meteo historical weather data
COMMENTS 2,Partial-year EPW from 2025-12-01 to 2026-04-01
DATA PERIODS,1,1,OpenMeteo partial year,Thursday,12/1/2025,4/1/2026
2025,12,1,1,60,?9?9?9?9,0.6,-0.3,93,99060,9999,9999,9999,0,0,0,999999,999999,999999,9999,214,4.15,10,10,9999,99999,9,999999999,999,0.999,0.0,99,0.2,0.0,0
2025,12,1,2,60,?9?9?9?9,0.6,-0.2,95,99080,9999,9999,9999,0,0,0,999999,999999,999999,9999,232,3.42,10,10,9999,99999,9,999999999,999,0.999,0.002,99,0.2,0.3,1
2025,12,1,3,60,?9?9?9?9,0.6,-1.1,88,99210,9999,9999,9999,0,0,0,999999,999999,999999,9999,310,4.47,10,10,9999,99999,9,999999999,999,0.999,0.004,99,0.2,0.6,1
2025,12,1,4,60,?9?9?9?9,-1.6,-4.7,79,99350,9999,9999,9999,0,0,0,999999,999999,999999,9999,325,5.35,10,10,9999,99999,9,999999999,999,0.999,0.0,99,0.2,0.0,0
2025,12,1,5,60,?9?9?9?9,-3.0,-6.4,78,99540,9999,9999,9999,0,0,0,999999,999999,999999,9999,324,5.72,10,10,9999,99999,9,999999999,999,0.999,0.0,99,0.2,0.0,0
2025,12,1,6,60,?9?9?9?9,-4.3,-7.8,77,99770,9999,9999,9999,0,0,0,999999,999999,999999,9999,323,5.93,9,9,9999,99999,9,999999999,999,0.999,0.0,99,0.2,0.0,0
2025,12,1,7,60,?9?9?9?9,-6.5,-10.4,74,99990,9999,9999,9999,0,0,0,999999,999999,999999,9999,322,5.24,5,5,9999,99999,9,999999999,999,0.999,0.0,99,0.2,0.0,0
2025,12,1,8,60,?9?9?9?9,-6.8,-10.4,75,100220,9999,9999,9999,0,0,0,999999,999999,999999,9999,319,4.36,6,6,9999,99999,9,999999999,999,0.999,0.0,99,0.2,0.0,0
2025,12,1,9,60,?9?9?9?9,-7.8,-11.6,74,100420,9999,9999,9999,17,112,10,999999,999999,999999,9999,322,4.59,8,8,9999,99999,9,999999999,999,0.999,0.0,99,0.2,0.0,0
2025,12,1,10,60,?9?9?9?9,-8.1,-13.2,67,100560,9999,9999,9999,114,334,61,999999,999999,999999,9999,325,5.63,10,10,9999,99999,9,999999999,999,0.999,0.0,99,0.2,0.0,0
2025,12,1,11,60,?9?9?9?9,-8.1,-13.8,64,100680,9999,9999,9999,216,381,115,999999,999999,999999,9999,319,4.92,6,6,9999,99999,9,999999999,999,0.999,0.0,99,0.2,0.0,0
2025,12,1,12,60,?9?9?9?9,-8.1,-14.9,59,100700,9999,9999,9999,298,450,147,999999,999999,999999,9999,317,4.24,1,1,9999,99999,9,999999999,999,0.999,0.0,99,0.2,0.0,0
2025,12,1,13,60,?9?9?9?9,-7.9,-15.2,56,100690,9999,9999,9999,374,790,86,999999,999999,999999,9999,308,3.74,0,0,9999,99999,9,999999999,999,0.999,0.0,99,0.2,0.0,0
2025,12,1,14,60,?9?9?9?9,-7.3,-14.4,57,100690,9999,9999,9999,364,828,74,999999,999999,999999,9999,292,2.49,0,0,9999,99999,9,999999999,999,0.999,0.0,99,0.2,0.0,0
2025,12,1,15,60,?9?9?9?9,-7.2,-14.6,56,100700,9999,9999,9999,296,794,63,999999,999999,999999,9999,277,1.31,0,0,9999,99999,9,999999999,999,0.999,0.0,99,0.2,0.0,0
2025,12,1,16,60,?9?9?9?9,-8.4,-15.1,59,100700,9999,9999,9999,182,665,50,999999,999999,999999,9999,265,1.2,0,0,9999,99999,9,999999999,999,0.999,0.0,99,0.2,0.0,0
2025,12,1,17,60,?9?9?9?9,-11.1,-15.8,68,100700,9999,9999,9999,52,372,20,999999,999999,999999,9999,277,1.16,0,0,9999,99999,9,999999999,999,0.999,0.0,99,0.2,0.0,0
2025,12,1,18,60,?9?9?9?9,-13.1,-17.0,73,100740,9999,9999,9999,0,0,0,999999,999999,999999,9999,297,1.97,0,0,9999,99999,9,999999999,999,0.999,0.0,99,0.2,0.0,0
2025,12,1,19,60,?9?9?9?9,-13.6,-17.5,72,100810,9999,9999,9999,0,0,0,999999,999999,999999,9999,293,2.51,0,0,9999,99999,9,999999999,999,0.999,0.0,99,0.2,0.0,0
2025,12,1,20,60,?9?9?9?9,-14.1,-17.6,75,100780,9999,9999,9999,0,0,0,999999,999999,999999,9999,296,2.28,10,10,9999,99999,9,999999999,999,0.999,0.0,99,0.2,0.0,0
2025,12,1,21,60,?9?9?9?9,-14.2,-17.9,74,100770,9999,9999,9999,0,0,0,999999,999999,999999,9999,301,2.51,10,10,9999,99999,9,999999999,999,0.999,0.0,99,0.2,0.0,0
2025,12,1,22,60,?9?9?9?9,-14.9,-18.5,74,100730,9999,9999,9999,0,0,0,999999,999999,999999,9999,305,2.19,10,10,9999,99999,9,999999999,999,0.999,0.0,99,0.2,0.0,0
2025,12,1,23,60,?9?9?9?9,-15.3,-18.7,75,100720,9999,9999,9999,0,0,0,999999,999999,999999,9999,305,2.37,10,10,9999,99999,9,999999999,999,0.999,0.0,99,0.2,0.0,0
2025,12,1,24,60,?9?9?9?9,-16.8,-20.0,77,100600,9999,9999,9999,0,0,0,999999,999999,999999,9999,315,1.63,10,10,9999,99999,9,999999999,999,0.999,0.0,99,0.2,0.0,0
2025,12,2,1,60,?9?9?9?9,-17.5,-20.3,79,100520,9999,9999,9999,0,0,0,999999,999999,999999,9999,306,0.93,10,10,9999,99999,9,999999999,999,0.999,0.0,99,0.2,0.0,0
2025,12,2,2,60,?9?9?9?9,-16.5,-19.0,80,100450,9999,9999,9999,0,0,0,999999,999999,999999,9999,236,0.36,10,10,9999,99999,9,999999999,999,0.999,0.0,99,0.2,0.0,0
2025,12,2,3,60,?9?9?9?9,-15.4,-18.1,80,100420,9999,9999,9999,0,0,0,999999,999999,999999,9999,225,0.28,10,10,9999,99999,9,999999999,999,0.999,0.0,99,0.2,0.0,0
2025,12,2,4,60,?9?9?9?9,-14.9,-17.0,84,100390,9999,9999,9999,0,0,0,999999,999999,999999,9999,252,0.32,10,10,9999,99999,9,999999999,999,0.999,0.0,99,0.2,0.0,0
2025,12,2,5,60,?9?9?9?9,-14.1,-15.8,88,100310,9999,9999,9999,0,0,0,999999,999999,999999,9999,139,0.53,10,10,9999,99999,9,999999999,999,0.999,0.0,99,0.2,0.0,0
2025,12,2,6,60,?9?9?9?9,-13.8,-15.4,88,100240,9999,9999,9999,0,0,0,999999,999999,999999,9999,93,0.95,10,10,9999,99999,9,999999999,999,0.999,0.001,99,0.2,0.1,1
2025,12,2,7,60,?9?9?9?9,-13.1,-14.8,88,100200,9999,9999,9999,0,0,0,999999,999999,999999,9999,360,0.6,10,10,9999,99999,9,999999999,999,0.999,0.001,99,0.2,0.1,1
2025,12,2,8,60,?9?9?9?9,-12.4,-14.3,86,100180,9999,9999,9999,0,0,0,999999,999999,999999,9999,357,1.0,10,10,9999,99999,9,999999999,999,0.999,0.001,99,0.2,0.2,1
2025,12,2,9,60,?9?9?9?9,-11.9,-13.9,86,100150,9999,9999,9999,9,0,9,999999,999999,999999,9999,49,1.38,10,10,9999,99999,9,999999999,999,0.999,0.001,99,0.2,0.1,1
2025,12,2,10,60,?9?9?9?9,-11.1,-13.2,84,100100,9999,9999,9999,72,19,69,999999,999999,999999,9999,62,1.59,10,10,9999,99999,9,999999999,999,0.999,0.0,99,0.2,0.0,0
2025,12,2,11,60,?9?9?9?9,-10.0,-12.6,82,100090,9999,9999,9999,148,50,135,999999,999999,999999,9999,74,1.25,10,10,9999,99999,9,999999999,999,0.999,0.0,99,0.2,0.0,0
2025,12,2,12,60,?9?9?9?9,-9.1,-12.1,79,99980,9999,9999,9999,180,24,172,999999,999999,999999,9999,56,1.33,10,10,9999,99999,9,999999999,999,0.999,0.0,99,0.2,0.0,0
2025,12,2,13,60,?9?9?9?9,-8.4,-11.7,77,99900,9999,9999,9999,219,39,205,999999,999999,999999,9999,85,1.2,10,10,9999,99999,9,999999999,999,0.999,0.0,99,0.2,0.0,0
2025,12,2,14,60,?9?9?9?9,-8.4,-11.6,78,99840,9999,9999,9999,213,49,196,999999,999999,999999,9999,62,1.48,10,10,9999,99999,9,999999999,999,0.999,0.0,99,0.2,0.0,0
2025,12,2,15,60,?9?9?9?9,-8.2,-11.4,78,99800,9999,9999,9999,192,113,159,999999,999999,999999,9999,72,1.47,10,10,9999,99999,9,999999999,999,0.999,0.0,99,0.2,0.0,0
2025,12,2,16,60,?9?9?9?9,-8.6,-11.4,80,99770,9999,9999,9999,141,269,88,999999,999999,999999,9999,69,1.39,8,8,9999,99999,9,999999999,999,0.999,0.0,99,0.2,0.0,0
2025,12,2,17,60,?9?9?9?9,-10.8,-12.4,88,99730,9999,9999,9999,40,164,26,999999,999999,999999,9999,44,1.45,5,5,9999,99999,9,999999999,999,0.999,0.0,99,0.2,0.0,0
2025,12,2,18,60,?9?9?9?9,-11.7,-13.2,88,99700,9999,9999,9999,0,0,0,999999,999999,999999,9999,29,1.77,7,7,9999,99999,9,999999999,999,0.999,0.0,99,0.2,0.0,0
2025,12,2,19,60,?9?9?9?9,-12.4,-13.9,88,99610,9999,9999,9999,0,0,0,999999,999999,999999,9999,12,2.1,1,1,9999,99999,9,999999999,999,0.999,0.0,99,0.2,0.0,0
2025,12,2,20,60,?9?9?9?9,-13.4,-15.1,87,99560,9999,9999,9999,0,0,0,999999,999999,999999,9999,9,2.23,0,0,9999,99999,9,999999999,999,0.999,0.0,99,0.2,0.0,0
2025,12,2,21,60,?9?9?9?9,-13.4,-15.4,85,99520,9999,9999,9999,0,0,0,999999,999999,999999,9999,6,2.46,0,0,9999,99999,9,999999999,999,0.999,0.0,99,0.2,0.0,0
2025,12,2,22,60,?9?9?9?9,-13.4,-15.5,84,99510,9999,9999,9999,0,0,0,999999,999999,999999,9999,357,2.7,0,0,9999,99999,9,999999999,999,0.999,0.0,99,0.2,0.0,0
2025,12,2,23,60,?9?9?9?9,-13.6,-15.8,83,99510,9999,9999,9999,0,0,0,999999,999999,999999,9999,357,2.6,0,0,9999,99999,9,999999999,999,0.999,0.0,99,0.2,0.0,0
2025,12,2,24,60,?9?9?9?9,-13.9,-16.1,84,99470,9999,9999,9999,0,0,0,999999,999999,999999,9999,353,2.72,1,1,9999,99999,9,999999999,999,0.999,0.0,99,0.2,0.0,0
2025,12,3,1,60,?9?9?9?9,-14.4,-16.5,84,99460,9999,9999,9999,0,0,0,999999,999999,999999,9999,350,2.8,1,1,9999,99999,9,999999999,999,0.999,0.0,99,0.2,0.0,0
2025,12,3,2,60,?9?9?9?9,-14.7,-16.8,84,99450,9999,9999,9999,0,0,0,999999,999999,999999,9999,345,3.01,4,4,9999,99999,9,999999999,999,0.999,0.0,99,0.2,0.0,0
2025,12,3,3,60,?9?9?9?9,-14.6,-16.6,85,99450,9999,9999,9999,0,0,0,999999,999999,999999,9999,340,2.88,6,6,9999,99999,9,999999999,999,0.999,0.0,99,0.2,0.0,0
2025,12,3,4,60,?9?9?9?9,-15.1,-17.0,85,99440,9999,9999,9999,0,0,0,999999,999999,999999,9999,329,2.92,5,5,9999,99999,9,999999999,999,0.999,0.0,99,0.2,0.0,0
2025,12,3,5,60,?9?9?9?9,-15.0,-16.9,85,99450,9999,9999,9999,0,0,0,999999,999999,999999,9999,334,2.84,9,9,9999,99999,9,999999999,999,0.999,0.0,99,0.2,0.0,0
2025,12,3,6,60,?9?9?9?9,-15.4,-17.4,85,99450,9999,9999,9999,0,0,0,999999,999999,999999,9999,336,2.69,10,10,9999,99999,9,999999999,999,0.999,0.0,99,0.2,0.0,0
2025,12,3,7,60,?9?9?9?9,-15.8,-17.8,85,99460,9999,9999,9999,0,0,0,999999,999999,999999,9999,338,2.04,9,9,9999,99999,9,999999999,999,0.999,0.0,99,0.2,0.0,0
2025,12,3,8,60,?9?9?9?9,-16.3,-18.5,83,99530,9999,9999,9999,0,0,0,999999,999999,999999,9999,308,0.82,8,8,9999,99999,9,999999999,999,0.999,0.0,99,0.2,0.0,0
2025,12,3,9,60,?9?9?9?9,-15.9,-17.8,85,99610,9999,9999,9999,13,34,11,999999,999999,999999,9999,254,0.89,4,4,9999,99999,9,999999999,999,0.999,0.0,99,0.2,0.0,0
2025,12,3,10,60,?9?9?9?9,-14.1,-16.4,83,99630,9999,9999,9999,96,190,67,999999,999999,999999,9999,216,1.43,10,10,9999,99999,9,999999999,999,0.999,0.0,99,0.2,0.0,0
2025,12,3,11,60,?9?9?9?9,-12.1,-14.6,82,99670,9999,9999,9999,189,285,115,999999,999999,999999,9999,201,2.79,10,10,9999,99999,9,999999999,999,0.999,0.0,99,0.2,0.0,0
2025,12,3,12,60,?9?9?9?9,-10.3,-13.0,81,99620,9999,9999,9999,227,142,180,999999,999999,999999,9999,194,3.4,10,10,9999,99999,9,999999999,999,0.999,0.0,99,0.2,0.0,0
2025,12,3,13,60,?9?9?9?9,-9.2,-11.6,83,99540,9999,9999,9999,190,33,178,999999,999999,999999,9999,185,3.51,10,10,9999,99999,9,999999999,999,0.999,0.0,99,0.2,0.0,0
2025,12,3,14,60,?9?9?9?9,-8.6,-10.6,85,99500,9999,9999,9999,164,6,162,999999,999999,999999,9999,192,3.99,10,10,9999,99999,9,999999999,999,0.999,0.001,99,0.2,0.1,1
2025,12,3,15,60,?9?9?9?9,-8.0,-10.1,85,99460,9999,9999,9999,119,21,113,999999,999999,999999,9999,193,3.64,10,10,9999,99999,9,999999999,999,0.999,0.001,99,0.2,0.1,1
2025,12,3,16,60,?9?9?9?9,-7.3,-9.4,85,99420,9999,9999,9999,96,31,90,999999,999999,999999,9999,189,3.59,10,10,9999,99999,9,999999999,999,0.999,0.0,99,0.2,0.0,0
2025,12,3,17,60,?9?9?9?9,-7.1,-8.9,87,99360,9999,9999,9999,22,0,22,999999,999999,999999,9999,174,2.87,10,10,9999,99999,9,999999999,999,0.999,0.0,99,0.2,0.0,0
2025,12,3,18,60,?9?9?9?9,-6.8,-8.4,88,99310,9999,9999,9999,0,0,0,999999,999999,999999,9999,168,2.61,10,10,9999,99999,9,999999999,999,0.999,0.001,99,0.2,0.1,1
2025,12,3,19,60,?9?9?9?9,-6.4,-8.1,88,99280,9999,9999,9999,0,0,0,999999,999999,999999,9999,171,2.63,10,10,9999,99999,9,999999999,999,0.999,0.001,99,0.2,0.1,1
2025,12,3,20,60,?9?9?9?9,-6.3,-7.7,90,99220,9999,9999,9999,0,0,0,999999,999999,999999,9999,173,2.97,10,10,9999,99999,9,999999999,999,0.999,0.001,99,0.2,0.2,1
2025,12,3,21,60,?9?9?9?9,-5.6,-7.1,89,99150,9999,9999,9999,0,0,0,999999,999999,999999,9999,175,3.16,10,10,9999,99999,9,999999999,999,0.999,0.001,99,0.2,0.2,1
2025,12,3,22,60,?9?9?9?9,-4.7,-6.1,90,99070,9999,9999,9999,0,0,0,999999,999999,999999,9999,183,3.51,10,10,9999,99999,9,999999999,999,0.999,0.001,99,0.2,0.1,1
2025,12,3,23,60,?9?9?9?9,-3.3,-4.4,92,99000,9999,9999,9999,0,0,0,999999,999999,999999,9999,199,4.33,10,10,9999,99999,9,999999999,999,0.999,0.001,99,0.2,0.2,1
2025,12,3,24,60,?9?9?9?9,-2.2,-3.2,93,98930,9999,9999,9999,0,0,0,999999,999999,999999,9999,201,4.76,10,10,9999,99999,9,999999999,999,0.999,0.001,99,0.2,0.2,1
2025,12,4,1,60,?9?9?9?9,-1.4,-2.4,93,98870,9999,9999,9999,0,0,0,999999,999999,999999,9999,204,4.92,10,10,9999,99999,9,999999999,999,0.999,0.001,99,0.2,0.1,1
2025,12,4,2,60,?9?9?9?9,-2.3,-3.0,95,98830,9999,9999,9999,0,0,0,999999,999999,999999,9999,205,4.32,10,10,9999,99999,9,999999999,999,0.999,0.001,99,0.2,0.1,1
2025,12,4,3,60,?9?9?9?9,-1.8,-2.5,94,98830,9999,9999,9999,0,0,0,999999,999999,999999,9999,212,4.13,10,10,9999,99999,9,999999999,999,0.999,0.001,99,0.2,0.2,1
2025,12,4,4,60,?9?9?9?9,-1.5,-2.3,94,98810,9999,9999,9999,0,0,0,999999,999999,999999,9999,223,4.03,10,10,9999,99999,9,999999999,999,0.999,0.001,99,0.2,0.2,1
2025,12,4,5,60,?9?9?9?9,-1.5,-3.5,87,98850,9999,9999,9999,0,0,0,999999,999999,999999,9999,282,4.34,10,10,9999,99999,9,999999999,999,0.999,0.003,99,0.2,0.4,1
2025,12,4,6,60,?9?9?9?9,-4.1,-8.9,69,98920,9999,9999,9999,0,0,0,999999,999999,999999,9999,307,4.75,6,6,9999,99999,9,999999999,999,0.999,0.001,99,0.2,0.1,1
2025,12,4,7,60,?9?9?9?9,-6.3,-10.6,72,98980,9999,9999,9999,0,0,0,999999,999999,999999,9999,315,4.03,10,10,9999,99999,9,999999999,999,0.999,0.0,99,0.2,0.0,0
2025,12,4,8,60,?9?9?9?9,-8.3,-13.6,66,99100,9999,9999,9999,0,0,0,999999,999999,999999,9999,317,3.86,10,10,9999,99999,9,999999999,999,0.999,0.0,99,0.2,0.0,0
2025,12,4,9,60,?9?9?9?9,-9.1,-15.1,62,99210,9999,9999,9999,5,0,5,999999,999999,999999,9999,309,2.91,10,10,9999,99999,9,999999999,999,0.999,0.0,99,0.2,0.0,0
2025,12,4,10,60,?9?9?9?9,-10.0,-16.8,58,99280,9999,9999,9999,70,40,64,999999,999999,999999,9999,301,2.8,10,10,9999,99999,9,999999999,999,0.999,0.0,99,0.2,0.0,0
2025,12,4,11,60,?9?9?9?9,-10.6,-17.6,56,99310,9999,9999,9999,225,483,101,999999,999999,999999,9999,298,2.59,0,0,9999,99999,9,999999999,999,0.999,0.0,99,0.2,0.0,0
2025,12,4,12,60,?9?9?9?9,-10.4,-18.2,53,99330,9999,9999,9999,339,824,69,999999,999999,999999,9999,288,3.26,8,8,9999,99999,9,999999999,999,0.999,0.0,99,0.2,0.0,0
2025,12,4,13,60,?9?9?9?9,-10.3,-19.7,46,99330,9999,9999,9999,356,686,111,999999,999999,999999,9999,279,4.25,4,4,9999,99999,9,999999999,999,0.999,0.0,99,0.2,0.0,0
2025,12,4,14,60,?9?9?9?9,-11.3,-20.4,47,99310,9999,9999,9999,322,538,137,999999,999999,999999,9999,287,5.39,2,2,9999,99999,9,999999999,999,0.999,0.0,99,0.2,0.0,0
2025,12,4,15,60,?9?9?9?9,-12.4,-21.5,46,99420,9999,9999,9999,289,752,72,999999,999999,999999,9999,295,6.53,10,10,9999,99999,9,999999999,999,0.999,0.0,99,0.2,0.0,0
2025,12,4,16,60,?9?9?9?9,-13.9,-22.9,47,99580,9999,9999,9999,145,319,83,999999,999999,999999,9999,296,6.66,2,2,9999,99999,9,999999999,999,0.999,0.0,99,0.2,0.0,0
2025,12,4,17,60,?9?9?9?9,-15.6,-23.8,50,99700,9999,9999,9999,44,238,24,999999,999999,999999,9999,295,5.62,0,0,9999,99999,9,999999999,999,0.999,0.0,99,0.2,0.0,0
2025,12,4,18,60,?9?9?9?9,-16.8,-23.6,55,99820,9999,9999,9999,0,0,0,999999,999999,999999,9999,293,4.77,1,1,9999,99999,9,999999999,999,0.999,0.0,99,0.2,0.0,0
2025,12,4,19,60,?9?9?9?9,-17.3,-23.6,58,99950,9999,9999,9999,0,0,0,999999,999999,999999,9999,301,5.11,1,1,9999,99999,9,999999999,999,0.999,0.0,99,0.2,0.0,0
2025,12,4,20,60,?9?9?9?9,-17.2,-23.4,59,100100,9999,9999,9999,0,0,0,999999,999999,999999,9999,307,5.6,0,0,9999,99999,9,999999999,999,0.999,0.0,99,0.2,0.0,0
2025,12,4,21,60,?9?9?9?9,-17.8,-23.7,60,100200,9999,9999,9999,0,0,0,999999,999999,999999,9999,310,4.9,0,0,9999,99999,9,999999999,999,0.999,0.0,99,0.2,0.0,0
2025,12,4,22,60,?9?9?9?9,-18.3,-23.8,62,100290,9999,9999,9999,0,0,0,999999,999999,999999,9999,309,4.09,0,0,9999,99999,9,999999999,999,0.999,0.0,99,0.2,0.0,0
2025,12,4,23,60,?9?9?9?9,-19.0,-23.9,65,100390,9999,9999,9999,0,0,0,999999,999999,999999,9999,297,2.64,0,0,9999,99999,9,999999999,999,0.999,0.0,99,0.2,0.0,0
2025,12,4,24,60,?9?9?9?9,-21.2,-25.5,69,100450,9999,9999,9999,0,0,0,999999,999999,999999,9999,252,1.47,0,0,9999,99999,9,999999999,999,0.999,0.0,99,0.2,0.0,0
2025,12,5,1,60,?9?9?9?9,-22.5,-26.2,71,100440,9999,9999,9999,0,0,0,999999,999999,999999,9999,253,1.68,0,0,9999,99999,9,999999999,999,0.999,0.0,99,0.2,0.0,0
2025,12,5,2,60,?9?9?9?9,-22.2,-26.4,69,100480,9999,9999,9999,0,0,0,999999,999999,999999,9999,261,2.02,1,1,9999,99999,9,999999999,999,0.999,0.0,99,0.2,0.0,0
2025,12,5,3,60,?9?9?9?9,-22.4,-26.4,70,100520,9999,9999,9999,0,0,0,999999,999999,999999,9999,263,2.02,1,1,9999,99999,9,999999999,999,0.999,0.0,99,0.2,0.0,0
2025,12,5,4,60,?9?9?9?9,-22.9,-26.8,70,100510,9999,9999,9999,0,0,0,999999,999999,999999,9999,269,1.95,1,1,9999,99999,9,999999999,999,0.999,0.0,99,0.2,0.0,0
2025,12,5,5,60,?9?9?9?9,-23.5,-27.4,71,100470,9999,9999,9999,0,0,0,999999,999999,999999,9999,279,0.96,1,1,9999,99999,9,999999999,999,0.999,0.0,99,0.2,0.0,0
2025,12,5,6,60,?9?9?9?9,-24.0,-27.6,72,100410,9999,9999,9999,0,0,0,999999,999999,999999,9999,284,0.82,1,1,9999,99999,9,999999999,999,0.999,0.0,99,0.2,0.0,0
2025,12,5,7,60,?9?9?9?9,-24.4,-27.8,73,100340,9999,9999,9999,0,0,0,999999,999999,999999,9999,285,0.57,4,4,9999,99999,9,999999999,999,0.999,0.0,99,0.2,0.0,0
2025,12,5,8,60,?9?9?9?9,-24.8,-28.4,72,100380,9999,9999,9999,0,0,0,999999,999999,999999,9999,225,2.05,5,5,9999,99999,9,999999999,999,0.999,0.0,99,0.2,0.0,0
2025,12,5,9,60,?9?9?9?9,-22.9,-26.4,73,100410,9999,9999,9999,14,88,9,999999,999999,999999,9999,217,3.5,10,10,9999,99999,9,999999999,999,0.999,0.0,99,0.2,0.0,0
2025,12,5,10,60,?9?9?9?9,-20.5,-25.0,67,100420,9999,9999,9999,101,232,67,999999,999999,999999,9999,210,3.34,10,10,9999,99999,9,999999999,999,0.999,0.0,99,0.2,0.0,0
2025,12,5,11,60,?9?9?9?9,-18.8,-23.9,64,100420,9999,9999,9999,211,405,108,999999,999999,999999,9999,202,3.34,9,9,9999,99999,9,999999999,999,0.999,0.0,99,0.2,0.0,0
2025,12,5,12,60,?9?9?9?9,-17.0,-22.4,63,100320,9999,9999,9999,287,464,136,999999,999999,999999,9999,203,3.58,10,10,9999,99999,9,999999999,999,0.999,0.0,99,0.2,0.0,0
2025,12,5,13,60,?9?9?9?9,-15.6,-22.0,58,100170,9999,9999,9999,286,282,186,999999,999999,999999,9999,200,3.46,10,10,9999,99999,9,999999999,999,0.999,0.0,99,0.2,0.0,0
2025,12,5,14,60,?9?9?9?9,-14.0,-20.4,59,100060,9999,9999,9999,250,155,197,999999,999999,999999,9999,200,2.82,10,10,9999,99999,9,999999999,999,0.999,0.0,99,0.2,0.0,0
2025,12,5,15,60,?9?9?9?9,-13.1,-19.4,59,99950,9999,9999,9999,213,230,147,999999,999999,999999,9999,195,2.53,9,9,9999,99999,9,999999999,999,0.999,0.0,99,0.2,0.0,0
2025,12,5,16,60,?9?9?9?9,-13.1,-18.4,64,99850,9999,9999,9999,135,279,81,999999,999999,999999,9999,192,1.64,9,9,9999,99999,9,999999999,999,0.999,0.0,99,0.2,0.0,0
2025,12,5,17,60,?9?9?9?9,-14.7,-18.9,70,99820,9999,9999,9999,40,168,26,999999,999999,999999,9999,208,1.36,9,9,9999,99999,9,999999999,999,0.999,0.0,99,0.2,0.0,0
2025,12,5,18,60,?9?9?9?9,-14.1,-19.0,67,99800,9999,9999,9999,0,0,0,999999,999999,999999,9999,221,1.52,8,8,9999,99999,9,999999999,999,0.999,0.0,99,0.2,0.0,0
2025,12,5,19,60,?9?9?9?9,-14.9,-19.9,66,99740,9999,9999,9999,0,0,0,999999,999999,999999,9999,222,1.2,4,4,9999,99999,9,999999999,999,0.999,0.0,99,0.2,0.0,0
2025,12,5,20,60,?9?9?9?9,-15.6,-19.9,70,99670,9999,9999,9999,0,0,0,999999,999999,999999,9999,229,0.46,2,2,9999,99999,9,999999999,999,0.999,0.0,99,0.2,0.0,0
2025,12,5,21,60,?9?9?9?9,-15.8,-20.2,69,99630,9999,9999,9999,0,0,0,999999,999999,999999,9999,270,0.5,5,5,9999,99999,9,999999999,999,0.999,0.0,99,0.2,0.0,0
2025,12,5,22,60,?9?9?9?9,-15.4,-19.8,69,99580,9999,9999,9999,0,0,0,999999,999999,999999,9999,264,0.5,7,7,9999,99999,9,999999999,999,0.999,0.0,99,0.2,0.0,0
2025,12,5,23,60,?9?9?9?9,-15.8,-19.9,71,99530,9999,9999,9999,0,0,0,999999,999999,999999,9999,158,0.27,10,10,9999,99999,9,999999999,999,0.999,0.0,99,0.2,0.0,0
2025,12,5,24,60,?9?9?9?9,-16.1,-19.6,74,99490,9999,9999,9999,0,0,0,999999,999999,999999,9999,84,0.45,8,8,9999,99999,9,999999999,999,0.999,0.0,99,0.2,0.0,0
2025,12,6,1,60,?9?9?9?9,-16.6,-19.6,78,99430,9999,9999,9999,0,0,0,999999,999999,999999,9999,79,1.07,8,8,9999,99999,9,999999999,999,0.999,0.0,99,0.2,0.0,0
2025,12,6,2,60,?9?9?9?9,-14.2,-17.1,78,99400,9999,9999,9999,0,0,0,999999,999999,999999,9999,83,1.61,10,10,9999,99999,9,999999999,999,0.999,0.0,99,0.2,0.0,0
2025,12,6,3,60,?9?9?9?9,-13.2,-16.1,79,99370,9999,9999,9999,0,0,0,999999,999999,999999,9999,79,2.04,10,10,9999,99999,9,999999999,999,0.999,0.0,99,0.2,0.0,0
2025,12,6,4,60,?9?9?9?9,-12.8,-15.4,81,99320,9999,9999,9999,0,0,0,999999,999999,999999,9999,90,1.85,10,10,9999,99999,9,999999999,999,0.999,0.001,99,0.2,0.1,1
2025,12,6,5,60,?9?9?9?9,-12.2,-14.7,82,99260,9999,9999,9999,0,0,0,999999,999999,999999,9999,102,1.74,10,10,9999,99999,9,999999999,999,0.999,0.001,99,0.2,0.1,1
2025,12,6,6,60,?9?9?9?9,-11.8,-14.1,83,99200,9999,9999,9999,0,0,0,999999,999999,999999,9999,106,1.87,10,10,9999,99999,9,999999999,999,0.999,0.001,99,0.2,0.1,1
2025,12,6,7,60,?9?9?9?9,-11.2,-13.5,83,99120,9999,9999,9999,0,0,0,999999,999999,999999,9999,117,2.3,10,10,9999,99999,9,999999999,999,0.999,0.001,99,0.2,0.1,1
2025,12,6,8,60,?9?9?9?9,-12.0,-13.9,86,99100,9999,9999,9999,0,0,0,999999,999999,999999,9999,84,2.82,10,10,9999,99999,9,999999999,999,0.999,0.001,99,0.2,0.1,1
2025,12,6,9,60,?9?9?9?9,-10.9,-12.9,86,99070,9999,9999,9999,6,0,6,999999,999999,999999,9999,114,3.02,10,10,9999,99999,9,999999999,999,0.999,0.001,99,0.2,0.1,1
2025,12,6,10,60,?9?9?9?9,-9.4,-12.0,81,99050,9999,9999,9999,43,0,43,999999,999999,999999,9999,126,2.97,10,10,9999,99999,9,999999999,999,0.999,0.001,99,0.2,0.2,1
2025,12,6,11,60,?9?9?9?9,-7.9,-10.7,80,99010,9999,9999,9999,65,0,65,999999,999999,999999,9999,155,3.09,10,10,9999,99999,9,999999999,999,0.999,0.001,99,0.2,0.2,1
2025,12,6,12,60,?9?9?9?9,-7.3,-9.7,83,98920,9999,9999,9999,60,0,60,999999,999999,999999,9999,147,2.75,10,10,9999,99999,9,999999999,999,0.999,0.001,99,0.2,0.2,1
2025,12,6,13,60,?9?9?9?9,-5.9,-7.9,85,98810,9999,9999,9999,86,0,86,999999,999999,999999,9999,171,3.24,10,10,9999,99999,9,999999999,999,0.999,0.001,99,0.2,0.2,1
2025,12,6,14,60,?9?9?9?9,-5.1,-6.9,87,98730,9999,9999,9999,80,0,80,999999,999999,999999,9999,168,3.22,10,10,9999,99999,9,999999999,999,0.999,0.001,99,0.2,0.2,1
2025,12,6,15,60,?9?9?9?9,-4.2,-5.8,89,98680,9999,9999,9999,65,0,65,999999,999999,999999,9999,178,3.35,10,10,9999,99999,9,999999999,999,0.999,0.001,99,0.2,0.2,1
2025,12,6,16,60,?9?9?9?9,-3.6,-5.0,90,98650,9999,9999,9999,33,0,33,999999,999999,999999,9999,188,3.59,10,10,9999,99999,9,999999999,999,0.999,0.002,99,0.2,0.3,1
2025,12,6,17,60,?9?9?9?9,-3.2,-4.3,92,98640,9999,9999,9999,11,0,11,999999,999999,999999,9999,195,4.04,10,10,9999,99999,9,999999999,999,0.999,0.001,99,0.2,0.2,1
2025,12,6,18,60,?9?9?9?9,-2.8,-3.8,92,98680,9999,9999,9999,0,0,0,999999,999999,999999,9999,205,4.2,10,10,9999,99999,9,999999999,999,0.999,0.0,99,0.2,0.0,0
2025,12,6,19,60,?9?9?9?9,-2.2,-3.4,92,98740,9999,9999,9999,0,0,0,999999,999999,999999,9999,208,4.0,10,10,9999,99999,9,999999999,999,0.999,0.0,99,0.2,0.0,0
2025,12,6,20,60,?9?9?9?9,-2.5,-3.5,92,98790,9999,9999,9999,0,0,0,999999,999999,999999,9999,214,3.56,2,2,9999,99999,9,999999999,999,0.999,0.001,99,0.2,0.1,1
2025,12,6,21,60,?9?9?9?9,-4.1,-5.1,93,98870,9999,9999,9999,0,0,0,999999,999999,999999,9999,235,2.73,10,10,9999,99999,9,999999999,999,0.999,0.001,99,0.2,0.1,1
2025,12,6,22,60,?9?9?9?9,-2.8,-7.1,73,99030,9999,9999,9999,0,0,0,999999,999999,999999,9999,302,5.12,4,4,9999,99999,9,999999999,999,0.999,0.002,99,0.2,0.3,1
2025,12,6,23,60,?9?9?9?9,-5.5,-10.6,67,99150,9999,9999,9999,0,0,0,999999,999999,999999,9999,307,4.68,0,0,9999,99999,9,999999999,999,0.999,0.0,99,0.2,0.0,0
2025,12,6,24,60,?9?9?9?9,-8.0,-12.7,69,99280,9999,9999,9999,0,0,0,999999,999999,999999,9999,306,4.9,0,0,9999,99999,9,999999999,999,0.999,0.0,99,0.2,0.0,0
2025,12,7,1,60,?9?9?9?9,-10.9,-15.4,70,99430,9999,9999,9999,0,0,0,999999,999999,999999,9999,315,4.84,0,0,9999,99999,9,999999999,999,0.999,0.0,99,0.2,0.0,0
2025,12,7,2,60,?9?9?9?9,-12.9,-17.4,69,99510,9999,9999,9999,0,0,0,999999,999999,999999,9999,321,4.72,0,0,9999,99999,9,999999999,999,0.999,0.0,99,0.2,0.0,0
2025,12,7,3,60,?9?9?9?9,-14.0,-18.4,70,99660,9999,9999,9999,0,0,0,999999,999999,999999,9999,321,3.91,0,0,9999,99999,9,999999999,999,0.999,0.0,99,0.2,0.0,0
2025,12,7,4,60,?9?9?9?9,-15.0,-19.0,72,99780,9999,9999,9999,0,0,0,999999,999999,999999,9999,320,2.94,0,0,9999,99999,9,999999999,999,0.999,0.0,99,0.2,0.0,0
2025,12,7,5,60,?9?9?9?9,-16.8,-20.5,73,99850,9999,9999,9999,0,0,0,999999,999999,999999,9999,311,1.98,0,0,9999,99999,9,999999999,999,0.999,0.0,99,0.2,0.0,0
2025,12,7,6,60,?9?9?9?9,-18.5,-22.0,74,99900,9999,9999,9999,0,0,0,999999,999999,999999,9999,312,1.88,3,3,9999,99999,9,999999999,999,0.999,0.0,99,0.2,0.0,0
2025,12,7,7,60,?9?9?9?9,-19.6,-23.0,75,99930,9999,9999,9999,0,0,0,999999,999999,999999,9999,316,1.94,3,3,9999,99999,9,999999999,999,0.999,0.0,99,0.2,0.0,0
2025,12,7,8,60,?9?9?9?9,-20.4,-23.5,76,99970,9999,9999,9999,0,0,0,999999,999999,999999,9999,312,2.09,2,2,9999,99999,9,999999999,999,0.999,0.0,99,0.2,0.0,0
2025,12,7,9,60,?9?9?9?9,-19.7,-23.2,74,100020,9999,9999,9999,14,130,7,999999,999999,999999,9999,312,2.3,2,2,9999,99999,9,999999999,999,0.999,0.0,99,0.2,0.0,0
2025,12,7,10,60,?9?9?9?9,-17.6,-22.0,68,100020,9999,9999,9999,119,558,40,999999,999999,999999,9999,324,1.86,7,7,9999,99999,9,999999999,999,0.999,0.0,99,0.2,0.0,0
2025,12,7,11,60,?9?9?9?9,-14.6,-20.9,59,100070,9999,9999,9999,242,726,61,999999,999999,999999,9999,341,1.22,8,8,9999,99999,9,999999999,999,0.999,0.0,99,0.2,0.0,0
2025,12,7,12,60,?9?9?9?9,-12.8,-19.9,55,100040,9999,9999,9999,327,792,73,999999,999999,999999,9999,360,0.75,7,7,9999,99999,9,999999999,999,0.999,0.0,99,0.2,0.0,0
2025,12,7,13,60,?9?9?9?9,-11.5,-19.1,53,99960,9999,9999,9999,357,760,90,999999,999999,999999,9999,63,0.34,10,10,9999,99999,9,999999999,999,0.999,0.0,99,0.2,0.0,0
2025,12,7,14,60,?9?9?9?9,-10.9,-19.1,50,99870,9999,9999,9999,338,726,92,999999,999999,999999,9999,108,0.79,10,10,9999,99999,9,999999999,999,0.999,0.0,99,0.2,0.0,0
2025,12,7,15,60,?9?9?9?9,-10.9,-18.8,52,99820,9999,9999,9999,256,524,107,999999,999999,999999,9999,93,0.85,10,10,9999,99999,9,999999999,999,0.999,0.0,99,0.2,0.0,0
2025,12,7,16,60,?9?9?9?9,-11.2,-18.0,57,99850,9999,9999,9999,104,26,99,999999,999999,999999,9999,149,1.64,10,10,9999,99999,9,999999999,999,0.999,0.0,99,0.2,0.0,0
2025,12,7,17,60,?9?9?9?9,-12.4,-16.4,72,99830,9999,9999,9999,27,12,26,999999,999999,999999,9999,153,1.01,10,10,9999,99999,9,999999999,999,0.999,0.0,99,0.2,0.0,0
2025,12,7,18,60,?9?9?9?9,-13.0,-16.0,78,99820,9999,9999,9999,0,0,0,999999,999999,999999,9999,186,0.96,10,10,9999,99999,9,999999999,999,0.999,0.001,99,0.2,0.1,1
2025,12,7,19,60,?9?9?9?9,-13.1,-16.3,77,99760,9999,9999,9999,0,0,0,999999,999999,999999,9999,304,0.18,10,10,9999,99999,9,999999999,999,0.999,0.001,99,0.2,0.1,1
2025,12,7,20,60,?9?9?9?9,-13.6,-16.5,79,99720,9999,9999,9999,0,0,0,999999,999999,999999,9999,321,1.35,10,10,9999,99999,9,999999999,999,0.999,0.001,99,0.2,0.1,1
2025,12,7,21,60,?9?9?9?9,-13.5,-16.2,80,99680,9999,9999,9999,0,0,0,999999,999999,999999,9999,329,1.64,10,10,9999,99999,9,999999999,999,0.999,0.001,99,0.2,0.1,1
2025,12,7,22,60,?9?9?9?9,-14.0,-16.6,81,99660,9999,9999,9999,0,0,0,999999,999999,999999,9999,328,2.07,10,10,9999,99999,9,999999999,999,0.999,0.0,99,0.2,0.0,0
2025,12,7,23,60,?9?9?9?9,-14.9,-17.5,81,99650,9999,9999,9999,0,0,0,999999,999999,999999,9999,327,2.39,6,6,9999,99999,9,999999999,999,0.999,0.0,99,0.2,0.0,0
2025,12,7,24,60,?9?9?9?9,-15.9,-18.8,79,99700,9999,9999,9999,0,0,0,999999,999999,999999,9999,321,2.52,2,2,9999,99999,9,999999999,999,0.999,0.0,99,0.2,0.0,0
2025,12,8,1,60,?9?9?9?9,-16.2,-19.3,77,99770,9999,9999,9999,0,0,0,999999,999999,999999,9999,319,3.65,6,6,9999,99999,9,999999999,999,0.999,0.0,99,0.2,0.0,0
2025,12,8,2,60,?9?9?9?9,-16.4,-19.8,75,99830,9999,9999,9999,0,0,0,999999,999999,999999,9999,328,3.55,9,9,9999,99999,9,999999999,999,0.999,0.0,99,0.2,0.0,0
2025,12,8,3,60,?9?9?9?9,-16.3,-19.6,76,99880,9999,9999,9999,0,0,0,999999,999999,999999,9999,330,3.29,10,10,9999,99999,9,999999999,999,0.999,0.0,99,0.2,0.0,0
2025,12,8,4,60,?9?9?9?9,-16.3,-19.6,75,99970,9999,9999,9999,0,0,0,999999,999999,999999,9999,321,4.65,2,2,9999,99999,9,999999999,999,0.999,0.0,99,0.2,0.0,0
2025,12,8,5,60,?9?9?9?9,-16.9,-20.7,72,100030,9999,9999,9999,0,0,0,999999,999999,999999,9999,319,5.39,0,0,9999,99999,9,999999999,999,0.999,0.0,99,0.2,0.0,0
2025,12,8,6,60,?9?9?9?9,-17.7,-21.9,70,100130,9999,9999,9999,0,0,0,999999,999999,999999,9999,322,5.27,0,0,9999,99999,9,999999999,999,0.999,0.0,99,0.2,0.0,0
2025,12,8,7,60,?9?9?9?9,-18.6,-22.9,69,100240,9999,9999,9999,0,0,0,999999,999999,999999,9999,321,4.73,0,0,9999,99999,9,999999999,999,0.999,0.0,99,0.2,0.0,0
2025,12,8,8,60,?9?9?9?9,-19.1,-23.3,70,100360,9999,9999,9999,0,0,0,999999,999999,999999,9999,314,3.92,0,0,9999,99999,9,999999999,999,0.999,0.0,99,0.2,0.0,0
2025,12,8,9,60,?9?9?9?9,-19.6,-23.9,69,100450,9999,9999,9999,13,114,7,999999,999999,999999,9999,305,2.94,0,0,9999,99999,9,999999999,999,0.999,0.0,99,0.2,0.0,0
2025,12,8,10,60,?9?9?9?9,-19.0,-24.0,65,100530,9999,9999,9999,118,568,39,999999,999999,999999,9999,283,1.08,0,0,9999,99999,9,999999999,999,0.999,0.0,99,0.2,0.0,0
2025,12,8,11,60,?9?9?9?9,-17.2,-23.6,58,100570,9999,9999,9999,241,733,60,999999,999999,999999,9999,223,1.31,0,0,9999,99999,9,999999999,999,0.999,0.0,99,0.2,0.0,0
2025,12,8,12,60,?9?9?9?9,-16.0,-22.5,57,100580,9999,9999,9999,329,813,70,999999,999999,999999,9999,217,2.5,0,0,9999,99999,9,999999999,999,0.999,0.0,99,0.2,0.0,0
2025,12,8,13,60,?9?9?9?9,-14.9,-21.4,58,100530,9999,9999,9999,369,847,73,999999,999999,999999,9999,217,3.18,0,0,9999,99999,9,999999999,999,0.999,0.0,99,0.2,0.0,0
2025,12,8,14,60,?9?9?9?9,-14.1,-20.4,59,100500,9999,9999,9999,354,839,71,999999,999999,999999,9999,217,3.46,0,0,9999,99999,9,999999999,999,0.999,0.0,99,0.2,0.0,0
2025,12,8,15,60,?9?9?9?9,-13.6,-19.8,60,100470,9999,9999,9999,285,777,65,999999,999999,999999,9999,219,2.81,0,0,9999,99999,9,999999999,999,0.999,0.0,99,0.2,0.0,0
2025,12,8,16,60,?9?9?9?9,-14.0,-18.9,66,100450,9999,9999,9999,174,656,49,999999,999999,999999,9999,208,2.26,0,0,9999,99999,9,999999999,999,0.999,0.0,99,0.2,0.0,0
2025,12,8,17,60,?9?9?9?9,-16.0,-19.2,76,100450,9999,9999,9999,48,364,18,999999,999999,999999,9999,205,2.71,0,0,9999,99999,9,999999999,999,0.999,0.0,99,0.2,0.0,0
2025,12,8,18,60,?9?9?9?9,-17.5,-20.1,80,100460,9999,9999,9999,0,0,0,999999,999999,999999,9999,220,2.73,0,0,9999,99999,9,999999999,999,0.999,0.0,99,0.2,0.0,0
2025,12,8,19,60,?9?9?9?9,-18.6,-21.5,79,100470,9999,9999,9999,0,0,0,999999,999999,999999,9999,237,2.02,0,0,9999,99999,9,999999999,999,0.999,0.0,99,0.2,0.0,0
2025,12,8,20,60,?9?9?9?9,-19.0,-22.1,77,100470,9999,9999,9999,0,0,0,999999,999999,999999,9999,249,2.14,0,0,9999,99999,9,999999999,999,0.999,0.0,99,0.2,0.0,0
2025,12,8,21,60,?9?9?9?9,-20.0,-23.4,75,100460,9999,9999,9999,0,0,0,999999,999999,999999,9999,261,2.02,0,0,9999,99999,9,999999999,999,0.999,0.0,99,0.2,0.0,0
2025,12,8,22,60,?9?9?9?9,-21.1,-24.2,76,100450,9999,9999,9999,0,0,0,999999,999999,999999,9999,262,1.82,0,0,9999,99999,9,999999999,999,0.999,0.0,99,0.2,0.0,0
2025,12,8,23,60,?9?9?9?9,-22.0,-24.8,78,100430,9999,9999,9999,0,0,0,999999,999999,999999,9999,260,1.93,0,0,9999,99999,9,999999999,999,0.999,0.0,99,0.2,0.0,0
2025,12,8,24,60,?9?9?9?9,-22.5,-25.2,79,100440,9999,9999,9999,0,0,0,999999,999999,999999,9999,261,1.92,0,0,9999,99999,9,999999999,999,0.999,0.0,99,0.2,0.0,0
2025,12,9,1,60,?9?9?9?9,-22.8,-25.5,79,100400,9999,9999,9999,0,0,0,999999,999999,999999,9999,266,1.6,0,0,9999,99999,9,999999999,999,0.999,0.0,99,0.2,0.0,0
2025,12,9,2,60,?9?9?9?9,-23.1,-26.4,75,100360,9999,9999,9999,0,0,0,999999,999999,999999,9999,286,1.3,1,1,9999,99999,9,999999999,999,0.999,0.0,99,0.2,0.0,0
2025,12,9,3,60,?9?9?9?9,-23.8,-26.9,75,100370,9999,9999,9999,0,0,0,999999,999999,999999,9999,258,1.23,4,4,9999,99999,9,999999999,999,0.999,0.0,99,0.2,0.0,0
2025,12,9,4,60,?9?9?9?9,-24.4,-27.4,76,100320,9999,9999,9999,0,0,0,999999,999999,999999,9999,268,1.75,4,4,9999,99999,9,999999999,999,0.999,0.0,99,0.2,0.0,0
2025,12,9,5,60,?9?9?9?9,-24.0,-27.0,76,100280,9999,9999,9999,0,0,0,999999,999999,999999,9999,270,1.9,6,6,9999,99999,9,999999999,999,0.999,0.0,99,0.2,0.0,0
2025,12,9,6,60,?9?9?9?9,-23.8,-26.8,76,100260,9999,9999,9999,0,0,0,999999,999999,999999,9999,259,1.58,2,2,9999,99999,9,999999999,999,0.999,0.0,99,0.2,0.0,0
2025,12,9,7,60,?9?9?9?9,-24.2,-27.1,77,100220,9999,9999,9999,0,0,0,999999,999999,999999,9999,250,1.17,0,0,9999,99999,9,999999999,999,0.999,0.0,99,0.2,0.0,0
2025,12,9,8,60,?9?9?9?9,-24.6,-27.4,78,100170,9999,9999,9999,0,0,0,999999,999999,999999,9999,242,1.19,2,2,9999,99999,9,999999999,999,0.999,0.0,99,0.2,0.0,0
2025,12,9,9,60,?9?9?9?9,-24.9,-27.7,77,100130,9999,9999,9999,11,98,6,999999,999999,999999,9999,213,1.73,0,0,9999,99999,9,999999999,999,0.999,0.0,99,0.2,0.0,0
2025,12,9,10,60,?9?9?9?9,-22.3,-25.6,74,100130,9999,9999,9999,112,526,40,999999,999999,999999,9999,190,1.68,0,0,9999,99999,9,999999999,999,0.999,0.0,99,0.2,0.0,0
2025,12,9,11,60,?9?9?9?9,-20.2,-24.5,69,100100,9999,9999,9999,235,707,62,999999,999999,999999,9999,189,1.67,0,0,9999,99999,9,999999999,999,0.999,0.0,99,0.2,0.0,0
2025,12,9,12,60,?9?9?9?9,-18.6,-23.3,66,100000,9999,9999,9999,322,792,71,999999,999999,999999,9999,184,2.06,4,4,9999,99999,9,999999999,999,0.999,0.0,99,0.2,0.0,0
2025,12,9,13,60,?9?9?9?9,-17.2,-22.1,65,99920,9999,9999,9999,357,785,84,999999,999999,999999,9999,183,2.5,9,9,9999,99999,9,999999999,999,0.999,0.0,99,0.2,0.0,0
2025,12,9,14,60,?9?9?9?9,-14.8,-18.8,72,99810,9999,9999,9999,320,604,117,999999,999999,999999,9999,185,2.81,10,10,9999,99999,9,999999999,999,0.999,0.0,99,0.2,0.0,0
2025,12,9,15,60,?9?9?9?9,-14.1,-18.2,71,99720,9999,9999,9999,231,354,131,999999,999999,999999,9999,185,2.61,10,10,9999,99999,9,999999999,999,0.999,0.0,99,0.2,0.0,0
2025,12,9,16,60,?9?9?9?9,-14.1,-17.5,75,99640,9999,9999,9999,98,26,93,999999,999999,999999,9999,171,1.82,10,10,9999,99999,9,999999999,999,0.999,0.0,99,0.2,0.0,0
2025,12,9,17,60,?9?9?9?9,-14.2,-16.9,81,99530,9999,9999,9999,26,0,26,999999,999999,999999,9999,159,1.23,10,10,9999,99999,9,999999999,999,0.999,0.0,99,0.2,0.0,0
2025,12,9,18,60,?9?9?9?9,-15.1,-17.4,83,99440,9999,9999,9999,0,0,0,999999,999999,999999,9999,86,0.7,10,10,9999,99999,9,999999999,999,0.999,0.0,99,0.2,0.0,0
2025,12,9,19,60,?9?9?9?9,-14.9,-17.1,83,99350,9999,9999,9999,0,0,0,999999,999999,999999,9999,72,1.47,10,10,9999,99999,9,999999999,999,0.999,0.0,99,0.2,0.0,0
2025,12,9,20,60,?9?9?9?9,-15.4,-17.6,83,99260,9999,9999,9999,0,0,0,999999,999999,999999,9999,69,2.47,10,10,9999,99999,9,999999999,999,0.999,0.0,99,0.2,0.0,0
2025,12,9,21,60,?9?9?9?9,-15.2,-17.8,81,99150,9999,9999,9999,0,0,0,999999,999999,999999,9999,59,2.26,10,10,9999,99999,9,999999999,999,0.999,0.0,99,0.2,0.0,0
2025,12,9,22,60,?9?9?9?9,-14.8,-17.7,79,99070,9999,9999,9999,0,0,0,999999,999999,999999,9999,66,2.24,10,10,9999,99999,9,999999999,999,0.999,0.0,99,0.2,0.0,0
2025,12,9,23,60,?9?9?9?9,-14.3,-17.4,77,98960,9999,9999,9999,0,0,0,999999,999999,999999,9999,78,1.99,10,10,9999,99999,9,999999999,999,0.999,0.001,99,0.2,0.1,1
2025,12,9,24,60,?9?9?9?9,-13.8,-16.7,79,98870,9999,9999,9999,0,0,0,999999,999999,999999,9999,76,1.9,10,10,9999,99999,9,999999999,999,0.999,0.001,99,0.2,0.1,1
2025,12,10,1,60,?9?9?9?9,-13.2,-15.9,80,98790,9999,9999,9999,0,0,0,999999,999999,999999,9999,75,1.92,10,10,9999,99999,9,999999999,999,0.999,0.001,99,0.2,0.2,1
2025,12,10,2,60,?9?9?9?9,-13.8,-15.9,84,98720,9999,9999,9999,0,0,0,999999,999999,999999,9999,56,2.3,10,10,9999,99999,9,999999999,999,0.999,0.001,99,0.2,0.1,1
2025,12,10,3,60,?9?9?9?9,-13.1,-15.2,85,98670,9999,9999,9999,0,0,0,999999,999999,999999,9999,50,2.09,10,10,9999,99999,9,999999999,999,0.999,0.001,99,0.2,0.2,1
2025,12,10,4,60,?9?9?9?9,-12.4,-14.4,85,98580,9999,9999,9999,0,0,0,999999,999999,999999,9999,82,1.72,10,10,9999,99999,9,999999999,999,0.999,0.001,99,0.2,0.1,1
2025,12,10,5,60,?9?9?9?9,-11.9,-13.7,86,98520,9999,9999,9999,0,0,0,999999,999999,999999,9999,49,2.2,10,10,9999,99999,9,999999999,999,0.999,0.001,99,0.2,0.2,1
2025,12,10,6,60,?9?9?9?9,-11.4,-13.0,88,98470,9999,9999,9999,0,0,0,999999,999999,999999,9999,50,2.02,10,10,9999,99999,9,999999999,999,0.999,0.001,99,0.2,0.1,1
2025,12,10,7,60,?9?9?9?9,-10.8,-12.4,88,98460,9999,9999,9999,0,0,0,999999,999999,999999,9999,31,2.4,10,10,9999,99999,9,999999999,999,0.999,0.001,99,0.2,0.2,1
2025,12,10,8,60,?9?9?9?9,-11.0,-12.6,88,98430,9999,9999,9999,0,0,0,999999,999999,999999,9999,62,2.84,10,10,9999,99999,9,999999999,999,0.999,0.001,99,0.2,0.1,1
2025,12,10,9,60,?9?9?9?9,-10.4,-11.9,88,98390,9999,9999,9999,4,0,4,999999,999999,999999,9999,76,2.68,10,10,9999,99999,9,999999999,999,0.999,0.001,99,0.2,0.1,1
2025,12,10,10,60,?9?9?9?9,-9.4,-11.1,87,98360,9999,9999,9999,39,0,39,999999,999999,999999,9999,81,2.53,10,10,9999,99999,9,999999999,999,0.999,0.0,99,0.2,0.0,0
2025,12,10,11,60,?9?9?9?9,-8.6,-10.6,85,98320,9999,9999,9999,82,12,79,999999,999999,999999,9999,80,2.49,10,10,9999,99999,9,999999999,999,0.999,0.0,99,0.2,0.0,0
2025,12,10,12,60,?9?9?9?9,-7.9,-10.0,85,98210,9999,9999,9999,93,3,92,999999,999999,999999,9999,69,2.67,10,10,9999,99999,9,999999999,999,0.999,0.0,99,0.2,0.0,0
2025,12,10,13,60,?9?9?9?9,-7.0,-9.3,84,98110,9999,9999,9999,115,3,114,999999,999999,999999,9999,72,2.94,10,10,9999,99999,9,999999999,999,0.999,0.0,99,0.2,0.0,0
2025,12,10,14,60,?9?9?9?9,-7.7,-9.8,85,97970,9999,9999,9999,89,0,89,999999,999999,999999,9999,66,3.89,10,10,9999,99999,9,999999999,999,0.999,0.001,99,0.2,0.2,1
2025,12,10,15,60,?9?9?9?9,-7.1,-9.1,86,97840,9999,9999,9999,69,0,69,999999,999999,999999,9999,66,3.83,10,10,9999,99999,9,999999999,999,0.999,0.005,99,0.2,0.7,1
2025,12,10,16,60,?9?9?9?9,-6.8,-8.6,87,97770,9999,9999,9999,31,0,31,999999,999999,999999,9999,62,3.85,10,10,9999,99999,9,999999999,999,0.999,0.007,99,0.2,1.0,1
2025,12,10,17,60,?9?9?9?9,-6.7,-8.1,89,97690,9999,9999,9999,8,0,8,999999,999999,999999,9999,62,4.32,10,10,9999,99999,9,999999999,999,0.999,0.008,99,0.2,1.2,1
2025,12,10,18,60,?9?9?9?9,-6.4,-7.8,90,97590,9999,9999,9999,0,0,0,999999,999999,999999,9999,63,4.65,10,10,9999,99999,9,999999999,999,0.999,0.008,99,0.2,1.1,1
2025,12,10,19,60,?9?9?9?9,-6.1,-7.4,90,97520,9999,9999,9999,0,0,0,999999,999999,999999,9999,65,4.7,10,10,9999,99999,9,999999999,999,0.999,0.008,99,0.2,1.1,1
2025,12,10,20,60,?9?9?9?9,-6.1,-7.5,89,97420,9999,9999,9999,0,0,0,999999,999999,999999,9999,60,4.68,10,10,9999,99999,9,999999999,999,0.999,0.006,99,0.2,0.8,1
2025,12,10,21,60,?9?9?9?9,-5.8,-7.2,90,97360,9999,9999,9999,0,0,0,999999,999999,999999,9999,55,4.16,10,10,9999,99999,9,999999999,999,0.999,0.004,99,0.2,0.6,1
2025,12,10,22,60,?9?9?9?9,-5.8,-7.1,91,97280,9999,9999,9999,0,0,0,999999,999999,999999,9999,50,3.91,10,10,9999,99999,9,999999999,999,0.999,0.005,99,0.2,0.7,1
2025,12,10,23,60,?9?9?9?9,-5.7,-7.0,91,97190,9999,9999,9999,0,0,0,999999,999999,999999,9999,42,3.58,10,10,9999,99999,9,999999999,999,0.999,0.003,99,0.2,0.5,1
2025,12,10,24,60,?9?9?9?9,-5.6,-6.9,90,97150,9999,9999,9999,0,0,0,999999,999999,999999,9999,33,3.33,10,10,9999,99999,9,999999999,999,0.999,0.003,99,0.2,0.5,1
2025,12,11,1,60,?9?9?9?9,-5.5,-6.8,90,97080,9999,9999,9999,0,0,0,999999,999999,999999,9999,27,3.42,10,10,9999,99999,9,999999999,999,0.999,0.003,99,0.2,0.5,1
2025,12,11,2,60,?9?9?9?9,-6.1,-7.6,89,97100,9999,9999,9999,0,0,0,999999,999999,999999,9999,18,3.42,10,10,9999,99999,9,999999999,999,0.999,0.003,99,0.2,0.4,1
2025,12,11,3,60,?9?9?9?9,-5.8,-7.6,87,97110,9999,9999,9999,0,0,0,999999,999999,999999,9999,18,3.32,10,10,9999,99999,9,999999999,999,0.999,0.002,99,0.2,0.3,1
2025,12,11,4,60,?9?9?9?9,-5.7,-7.5,87,97100,9999,9999,9999,0,0,0,999999,999999,999999,9999,9,3.04,10,10,9999,99999,9,999999999,999,0.999,0.001,99,0.2,0.2,1
2025,12,11,5,60,?9?9?9?9,-5.6,-7.4,87,97120,9999,9999,9999,0,0,0,999999,999999,999999,9999,347,2.67,10,10,9999,99999,9,999999999,999,0.999,0.001,99,0.2,0.1,1
2025,12,11,6,60,?9?9?9?9,-5.8,-7.8,86,97130,9999,9999,9999,0,0,0,999999,999999,999999,9999,331,2.98,10,10,9999,99999,9,999999999,999,0.999,0.001,99,0.2,0.1,1
2025,12,11,7,60,?9?9?9?9,-6.3,-8.6,84,97160,9999,9999,9999,0,0,0,999999,999999,999999,9999,320,3.34,10,10,9999,99999,9,999999999,999,0.999,0.001,99,0.2,0.2,1
2025,12,11,8,60,?9?9?9?9,-7.0,-9.2,84,97280,9999,9999,9999,0,0,0,999999,999999,999999,9999,308,2.78,10,10,9999,99999,9,999999999,999,0.999,0.001,99,0.2,0.1,1
2025,12,11,9,60,?9?9?9?9,-7.2,-9.6,83,97320,9999,9999,9999,2,0,2,999999,999999,999999,9999,301,2.51,10,10,9999,99999,9,999999999,999,0.999,0.003,99,0.2,0.4,1
2025,12,11,10,60,?9?9?9?9,-6.9,-10.0,79,97330,9999,9999,9999,37,0,37,999999,999999,999999,9999,297,2.46,10,10,9999,99999,9,999999999,999,0.999,0.002,99,0.2,0.3,1
2025,12,11,11,60,?9?9?9?9,-6.6,-10.4,74,97350,9999,9999,9999,105,12,102,999999,999999,999999,9999,301,3.16,10,10,9999,99999,9,999999999,999,0.999,0.001,99,0.2,0.2,1
2025,12,11,12,60,?9?9?9?9,-6.2,-10.7,71,97320,9999,9999,9999,138,16,133,999999,999999,999999,9999,291,3.01,10,10,9999,99999,9,999999999,999,0.999,0.001,99,0.2,0.2,1
2025,12,11,13,60,?9?9?9?9,-6.1,-11.0,68,97280,9999,9999,9999,151,12,147,999999,999999,999999,9999,288,3.26,10,10,9999,99999,9,999999999,999,0.999,0.002,99,0.2,0.3,1
2025,12,11,14,60,?9?9?9?9,-6.2,-11.4,67,97300,9999,9999,9999,153,18,147,999999,999999,999999,9999,286,3.8,10,10,9999,99999,9,999999999,999,0.999,0.001,99,0.2,0.2,1
2025,12,11,15,60,?9?9?9?9,-5.9,-11.6,64,97330,9999,9999,9999,115,11,112,999999,999999,999999,9999,295,4.03,10,10,9999,99999,9,999999999,999,0.999,0.001,99,0.2,0.2,1
2025,12,11,16,60,?9?9?9?9,-6.4,-11.5,67,97390,9999,9999,9999,61,0,61,999999,999999,999999,9999,290,3.51,10,10,9999,99999,9,999999999,999,0.999,0.001,99,0.2,0.2,1
2025,12,11,17,60,?9?9?9?9,-6.9,-11.6,69,97460,9999,9999,9999,20,0,20,999999,999999,999999,9999,293,4.03,10,10,9999,99999,9,999999999,999,0.999,0.001,99,0.2,0.2,1
2025,12,11,18,60,?9?9?9?9,-7.3,-11.9,70,97510,9999,9999,9999,0,0,0,999999,999999,999999,9999,297,4.7,10,10,9999,99999,9,999999999,999,0.999,0.001,99,0.2,0.1,1
2025,12,11,19,60,?9?9?9?9,-7.8,-12.2,71,97550,9999,9999,9999,0,0,0,999999,999999,999999,9999,298,5.03,10,10,9999,99999,9,999999999,999,0.999,0.001,99,0.2,0.1,1
2025,12,11,20,60,?9?9?9?9,-8.1,-12.1,73,97650,9999,9999,9999,0,0,0,999999,999999,999999,9999,301,5.09,10,10,9999,99999,9,999999999,999,0.999,0.001,99,0.2,0.1,1
2025,12,11,21,60,?9?9?9?9,-7.8,-12.1,71,97700,9999,9999,9999,0,0,0,999999,999999,999999,9999,301,5.36,10,10,9999,99999,9,999999999,999,0.999,0.001,99,0.2,0.1,1
2025,12,11,22,60,?9?9?9?9,-7.9,-12.6,69,97740,9999,9999,9999,0,0,0,999999,999999,999999,9999,309,6.04,10,10,9999,99999,9,999999999,999,0.999,0.0,99,0.2,0.0,0
2025,12,11,23,60,?9?9?9?9,-8.4,-13.1,69,97800,9999,9999,9999,0,0,0,999999,999999,999999,9999,306,6.15,10,10,9999,99999,9,999999999,999,0.999,0.0,99,0.2,0.0,0
2025,12,11,24,60,?9?9?9?9,-8.6,-13.4,68,97850,9999,9999,9999,0,0,0,999999,999999,999999,9999,303,6.3,10,10,9999,99999,9,999999999,999,0.999,0.0,99,0.2,0.0,0
2025,12,12,1,60,?9?9?9?9,-8.6,-13.6,68,97880,9999,9999,9999,0,0,0,999999,999999,999999,9999,298,6.29,10,10,9999,99999,9,999999999,999,0.999,0.0,99,0.2,0.0,0
2025,12,12,2,60,?9?9?9?9,-8.9,-13.4,70,97940,9999,9999,9999,0,0,0,999999,999999,999999,9999,283,6.15,10,10,9999,99999,9,999999999,999,0.999,0.0,99,0.2,0.0,0
2025,12,12,3,60,?9?9?9?9,-9.5,-14.1,69,98010,9999,9999,9999,0,0,0,999999,999999,999999,9999,281,6.28,10,10,9999,99999,9,999999999,999,0.999,0.0,99,0.2,0.0,0
2025,12,12,4,60,?9?9?9?9,-10.1,-14.6,69,98010,9999,9999,9999,0,0,0,999999,999999,999999,9999,281,5.85,10,10,9999,99999,9,999999999,999,0.999,0.0,99,0.2,0.0,0
2025,12,12,5,60,?9?9?9?9,-10.1,-14.6,69,98020,9999,9999,9999,0,0,0,999999,999999,999999,9999,280,5.84,6,6,9999,99999,9,999999999,999,0.999,0.0,99,0.2,0.0,0
2025,12,12,6,60,?9?9?9?9,-10.3,-14.9,69,98040,9999,9999,9999,0,0,0,999999,999999,999999,9999,281,5.55,6,6,9999,99999,9,999999999,999,0.999,0.0,99,0.2,0.0,0
2025,12,12,7,60,?9?9?9?9,-10.2,-14.8,70,98050,9999,9999,9999,0,0,0,999999,999999,999999,9999,280,5.29,9,9,9999,99999,9,999999999,999,0.999,0.0,99,0.2,0.0,0
2025,12,12,8,60,?9?9?9?9,-10.7,-14.6,73,98180,9999,9999,9999,0,0,0,999999,999999,999999,9999,280,4.51,10,10,9999,99999,9,999999999,999,0.999,0.0,99,0.2,0.0,0
2025,12,12,9,60,?9?9?9?9,-9.4,-13.9,70,98230,9999,9999,9999,7,0,7,999999,999999,999999,9999,286,4.83,10,10,9999,99999,9,999999999,999,0.999,0.0,99,0.2,0.0,0
2025,12,12,10,60,?9?9?9?9,-8.2,-13.1,68,98290,9999,9999,9999,75,69,66,999999,999999,999999,9999,294,4.92,10,10,9999,99999,9,999999999,999,0.999,0.0,99,0.2,0.0,0
2025,12,12,11,60,?9?9?9?9,-6.8,-12.4,64,98370,9999,9999,9999,162,126,132,999999,999999,999999,9999,296,4.38,10,10,9999,99999,9,999999999,999,0.999,0.0,99,0.2,0.0,0
2025,12,12,12,60,?9?9?9?9,-5.2,-12.1,59,98390,9999,9999,9999,240,254,161,999999,999999,999999,9999,309,5.97,10,10,9999,99999,9,999999999,999,0.999,0.0,99,0.2,0.0,0
2025,12,12,13,60,?9?9?9?9,-4.1,-11.0,59,98410,9999,9999,9999,315,515,138,999999,999999,999999,9999,311,7.12,10,10,9999,99999,9,999999999,999,0.999,0.0,99,0.2,0.0,0
2025,12,12,14,60,?9?9?9?9,-4.2,-10.4,62,98510,9999,9999,9999,285,426,143,999999,999999,999999,9999,309,6.86,10,10,9999,99999,9,999999999,999,0.999,0.0,99,0.2,0.0,0
2025,12,12,15,60,?9?9?9?9,-3.8,-9.9,63,98600,9999,9999,9999,211,318,122,999999,999999,999999,9999,309,5.83,10,10,9999,99999,9,999999999,999,0.999,0.0,99,0.2,0.0,0
2025,12,12,16,60,?9?9?9?9,-3.9,-9.8,64,98720,9999,9999,9999,123,175,90,999999,999999,999999,9999,302,4.97,7,7,9999,99999,9,999999999,999,0.999,0.0,99,0.2,0.0,0
2025,12,12,17,60,?9?9?9?9,-5.0,-10.2,67,98880,9999,9999,9999,37,135,26,999999,999999,999999,9999,279,4.05,10,10,9999,99999,9,999999999,999,0.999,0.0,99,0.2,0.0,0
2025,12,12,18,60,?9?9?9?9,-5.1,-10.1,68,99050,9999,9999,9999,0,0,0,999999,999999,999999,9999,269,3.6,10,10,9999,99999,9,999999999,999,0.999,0.0,99,0.2,0.0,0
2025,12,12,19,60,?9?9?9?9,-5.6,-10.2,70,99130,9999,9999,9999,0,0,0,999999,999999,999999,9999,267,3.46,10,10,9999,99999,9,999999999,999,0.999,0.0,99,0.2,0.0,0
2025,12,12,20,60,?9?9?9?9,-6.4,-10.6,73,99220,9999,9999,9999,0,0,0,999999,999999,999999,9999,265,3.51,9,9,9999,99999,9,999999999,999,0.999,0.0,99,0.2,0.0,0
2025,12,12,21,60,?9?9?9?9,-6.7,-10.6,73,99260,9999,9999,9999,0,0,0,999999,999999,999999,9999,268,3.05,10,10,9999,99999,9,999999999,999,0.999,0.0,99,0.2,0.0,0
2025,12,12,22,60,?9?9?9?9,-6.9,-10.6,75,99300,9999,9999,9999,0,0,0,999999,999999,999999,9999,261,3.03,7,7,9999,99999,9,999999999,999,0.999,0.0,99,0.2,0.0,0
2025,12,12,23,60,?9?9?9?9,-7.7,-10.9,78,99330,9999,9999,9999,0,0,0,999999,999999,999999,9999,264,3.11,0,0,9999,99999,9,999999999,999,0.999,0.0,99,0.2,0.0,0
2025,12,12,24,60,?9?9?9?9,-9.7,-12.1,83,99400,9999,9999,9999,0,0,0,999999,999999,999999,9999,260,2.99,0,0,9999,99999,9,999999999,999,0.999,0.0,99,0.2,0.0,0
2025,12,13,1,60,?9?9?9?9,-10.2,-12.4,84,99440,9999,9999,9999,0,0,0,999999,999999,999999,9999,260,2.99,3,3,9999,99999,9,999999999,999,0.999,0.0,99,0.2,0.0,0
2025,12,13,2,60,?9?9?9?9,-10.1,-13.0,80,99490,9999,9999,9999,0,0,0,999999,999999,999999,9999,257,2.83,0,0,9999,99999,9,999999999,999,0.999,0.0,99,0.2,0.0,0
2025,12,13,3,60,?9?9?9?9,-11.4,-14.4,78,99540,9999,9999,9999,0,0,0,999999,999999,999999,9999,254,2.34,3,3,9999,99999,9,999999999,999,0.999,0.0,99,0.2,0.0,0
2025,12,13,4,60,?9?9?9?9,-12.4,-15.3,79,99560,9999,9999,9999,0,0,0,999999,999999,999999,9999,257,1.84,9,9,9999,99999,9,999999999,999,0.999,0.0,99,0.2,0.0,0
2025,12,13,5,60,?9?9?9?9,-12.7,-15.3,81,99550,9999,9999,9999,0,0,0,999999,999999,999999,9999,259,0.81,10,10,9999,99999,9,999999999,999,0.999,0.0,99,0.2,0.0,0
2025,12,13,6,60,?9?9?9?9,-12.5,-14.9,83,99520,9999,9999,9999,0,0,0,999999,999999,999999,9999,247,0.65,10,10,9999,99999,9,999999999,999,0.999,0.0,99,0.2,0.0,0
2025,12,13,7,60,?9?9?9?9,-12.9,-15.1,84,99540,9999,9999,9999,0,0,0,999999,999999,999999,9999,214,0.72,10,10,9999,99999,9,999999999,999,0.999,0.0,99,0.2,0.0,0
2025,12,13,8,60,?9?9?9?9,-14.1,-15.9,86,99530,9999,9999,9999,0,0,0,999999,999999,999999,9999,180,0.65,10,10,9999,99999,9,999999999,999,0.999,0.0,99,0.2,0.0,0
2025,12,13,9,60,?9?9?9?9,-15.4,-16.9,89,99540,9999,9999,9999,7,21,6,999999,999999,999999,9999,172,0.71,10,10,9999,99999,9,999999999,999,0.999,0.0,99,0.2,0.0,0
2025,12,13,10,60,?9?9?9?9,-14.3,-16.1,86,99560,9999,9999,9999,72,62,64,999999,999999,999999,9999,185,0.6,10,10,9999,99999,9,999999999,999,0.999,0.0,99,0.2,0.0,0
2025,12,13,11,60,?9?9?9?9,-11.9,-14.9,78,99570,9999,9999,9999,126,34,118,999999,999999,999999,9999,117,0.22,9,9,9999,99999,9,999999999,999,0.999,0.0,99,0.2,0.0,0
2025,12,13,12,60,?9?9?9?9,-10.2,-14.1,74,99510,9999,9999,9999,224,264,142,999999,999999,999999,9999,119,0.92,10,10,9999,99999,9,999999999,999,0.999,0.0,99,0.2,0.0,0
2025,12,13,13,60,?9?9?9?9,-9.4,-13.1,74,99430,9999,9999,9999,220,137,173,999999,999999,999999,9999,119,1.14,10,10,9999,99999,9,999999999,999,0.999,0.001,99,0.2,0.1,1
2025,12,13,14,60,?9?9?9?9,-8.7,-11.8,78,99340,9999,9999,9999,137,0,137,999999,999999,999999,9999,92,1.8,10,10,9999,99999,9,999999999,999,0.999,0.001,99,0.2,0.2,1
2025,12,13,15,60,?9?9?9?9,-8.5,-11.2,81,99300,9999,9999,9999,85,4,84,999999,999999,999999,9999,100,1.42,10,10,9999,99999,9,999999999,999,0.999,0.003,99,0.2,0.4,1
2025,12,13,16,60,?9?9?9?9,-8.3,-10.6,83,99280,9999,9999,9999,51,0,51,999999,999999,999999,9999,94,1.4,10,10,9999,99999,9,999999999,999,0.999,0.001,99,0.2,0.2,1
2025,12,13,17,60,?9?9?9?9,-8.2,-10.1,87,99260,9999,9999,9999,18,0,18,999999,999999,999999,9999,84,2.01,10,10,9999,99999,9,999999999,999,0.999,0.001,99,0.2,0.1,1
2025,12,13,18,60,?9?9?9?9,-8.1,-9.6,89,99220,9999,9999,9999,0,0,0,999999,999999,999999,9999,88,2.6,10,10,9999,99999,9,999999999,999,0.999,0.001,99,0.2,0.1,1
2025,12,13,19,60,?9?9?9?9,-7.7,-8.9,90,99200,9999,9999,9999,0,0,0,999999,999999,999999,9999,92,2.4,10,10,9999,99999,9,999999999,999,0.999,0.003,99,0.2,0.4,1
2025,12,13,20,60,?9?9?9?9,-7.5,-8.8,90,99220,9999,9999,9999,0,0,0,999999,999999,999999,9999,91,2.3,10,10,9999,99999,9,999999999,999,0.999,0.005,99,0.2,0.7,1
2025,12,13,21,60,?9?9?9?9,-7.1,-8.4,91,99200,9999,9999,9999,0,0,0,999999,999999,999999,9999,112,1.62,10,10,9999,99999,9,999999999,999,0.999,0.001,99,0.2,0.1,1
2025,12,13,22,60,?9?9?9?9,-8.1,-9.1,93,99170,9999,9999,9999,0,0,0,999999,999999,999999,9999,69,0.43,8,8,9999,99999,9,999999999,999,0.999,0.0,99,0.2,0.0,0
2025,12,13,23,60,?9?9?9?9,-8.6,-9.6,92,99180,9999,9999,9999,0,0,0,999999,999999,999999,9999,265,1.05,10,10,9999,99999,9,999999999,999,0.999,0.0,99,0.2,0.0,0
2025,12,13,24,60,?9?9?9?9,-7.9,-9.2,91,99250,9999,9999,9999,0,0,0,999999,999999,999999,9999,232,3.1,10,10,9999,99999,9,999999999,999,0.999,0.0,99,0.2,0.0,0
2025,12,14,1,60,?9?9?9?9,-7.1,-9.4,84,99290,9999,9999,9999,0,0,0,999999,999999,999999,9999,239,2.98,8,8,9999,99999,9,999999999,999,0.999,0.0,99,0.2,0.0,0
2025,12,14,2,60,?9?9?9?9,-8.2,-10.4,84,99360,9999,9999,9999,0,0,0,999999,999999,999999,9999,229,2.73,0,0,9999,99999,9,999999999,999,0.999,0.0,99,0.2,0.0,0
2025,12,14,3,60,?9?9?9?9,-10.7,-13.1,82,99400,9999,9999,9999,0,0,0,999999,999999,999999,9999,267,2.15,0,0,9999,99999,9,999999999,999,0.999,0.0,99,0.2,0.0,0
2025,12,14,4,60,?9?9?9?9,-12.7,-14.9,84,99440,9999,9999,9999,0,0,0,999999,999999,999999,9999,282,1.99,0,0,9999,99999,9,999999999,999,0.999,0.0,99,0.2,0.0,0
2025,12,14,5,60,?9?9?9?9,-14.2,-15.8,88,99450,9999,9999,9999,0,0,0,999999,999999,999999,9999,287,1.2,3,3,9999,99999,9,999999999,999,0.999,0.0,99,0.2,0.0,0
2025,12,14,6,60,?9?9?9?9,-15.1,-16.8,88,99470,9999,9999,9999,0,0,0,999999,999999,999999,9999,298,1.19,4,4,9999,99999,9,999999999,999,0.999,0.0,99,0.2,0.0,0
2025,12,14,7,60,?9?9?9?9,-15.8,-17.6,86,99500,9999,9999,9999,0,0,0,999999,999999,999999,9999,303,1.55,4,4,9999,99999,9,999999999,999,0.999,0.0,99,0.2,0.0,0
2025,12,14,8,60,?9?9?9?9,-14.8,-16.8,85,99570,9999,9999,9999,0,0,0,999999,999999,999999,9999,288,1.31,7,7,9999,99999,9,999999999,999,0.999,0.0,99,0.2,0.0,0
2025,12,14,9,60,?9?9?9?9,-15.5,-17.2,86,99620,9999,9999,9999,7,22,6,999999,999999,999999,9999,293,1.79,5,5,9999,99999,9,999999999,999,0.999,0.0,99,0.2,0.0,0
2025,12,14,10,60,?9?9?9?9,-12.7,-15.6,79,99710,9999,9999,9999,94,362,48,999999,999999,999999,9999,298,2.04,2,2,9999,99999,9,999999999,999,0.999,0.0,99,0.2,0.0,0
2025,12,14,11,60,?9?9?9?9,-10.7,-15.6,67,99740,9999,9999,9999,225,696,61,999999,999999,999999,9999,306,2.22,1,1,9999,99999,9,999999999,999,0.999,0.0,99,0.2,0.0,0
2025,12,14,12,60,?9?9?9?9,-10.2,-15.8,64,99710,9999,9999,9999,317,809,67,999999,999999,999999,9999,307,1.5,0,0,9999,99999,9,999999999,999,0.999,0.0,99,0.2,0.0,0
2025,12,14,13,60,?9?9?9?9,-9.6,-15.9,60,99660,9999,9999,9999,357,831,73,999999,999999,999999,9999,301,1.46,0,0,9999,99999,9,999999999,999,0.999,0.0,99,0.2,0.0,0
2025,12,14,14,60,?9?9?9?9,-8.8,-15.8,57,99670,9999,9999,9999,345,826,71,999999,999999,999999,9999,289,1.8,0,0,9999,99999,9,999999999,999,0.999,0.0,99,0.2,0.0,0
2025,12,14,15,60,?9?9?9?9,-8.4,-15.6,56,99640,9999,9999,9999,279,770,64,999999,999999,999999,9999,297,2.12,4,4,9999,99999,9,999999999,999,0.999,0.0,99,0.2,0.0,0
2025,12,14,16,60,?9?9?9?9,-9.2,-15.7,59,99670,9999,9999,9999,169,620,52,999999,999999,999999,9999,300,1.72,2,2,9999,99999,9,999999999,999,0.999,0.0,99,0.2,0.0,0
2025,12,14,17,60,?9?9?9?9,-12.5,-16.5,72,99680,9999,9999,9999,47,343,19,999999,999999,999999,9999,304,2.12,0,0,9999,99999,9,999999999,999,0.999,0.0,99,0.2,0.0,0
2025,12,14,18,60,?9?9?9?9,-13.4,-17.1,74,99690,9999,9999,9999,0,0,0,999999,999999,999999,9999,315,2.76,1,1,9999,99999,9,999999999,999,0.999,0.0,99,0.2,0.0,0
2025,12,14,19,60,?9?9?9?9,-13.4,-16.6,76,99750,9999,9999,9999,0,0,0,999999,999999,999999,9999,321,4.12,3,3,9999,99999,9,999999999,999,0.999,0.0,99,0.2,0.0,0
2025,12,14,20,60,?9?9?9?9,-13.4,-17.3,73,99840,9999,9999,9999,0,0,0,999999,999999,999999,9999,322,4.35,2,2,9999,99999,9,999999999,999,0.999,0.0,99,0.2,0.0,0
2025,12,14,21,60,?9?9?9?9,-13.6,-17.4,73,99850,9999,9999,9999,0,0,0,999999,999999,999999,9999,322,4.49,1,1,9999,99999,9,999999999,999,0.999,0.0,99,0.2,0.0,0
2025,12,14,22,60,?9?9?9?9,-13.8,-17.5,74,99820,9999,9999,9999,0,0,0,999999,999999,999999,9999,327,4.73,0,0,9999,99999,9,999999999,999,0.999,0.0,99,0.2,0.0,0
2025,12,14,23,60,?9?9?9?9,-13.8,-17.2,75,99790,9999,9999,9999,0,0,0,999999,999999,999999,9999,327,4.7,1,1,9999,99999,9,999999999,999,0.999,0.0,99,0.2,0.0,0
2025,12,14,24,60,?9?9?9?9,-13.6,-16.9,76,99770,9999,9999,9999,0,0,0,999999,999999,999999,9999,328,4.47,2,2,9999,99999,9,999999999,999,0.999,0.0,99,0.2,0.0,0
2025,12,15,1,60,?9?9?9?9,-13.5,-16.7,77,99730,9999,9999,9999,0,0,0,999999,999999,999999,9999,326,4.4,2,2,9999,99999,9,999999999,999,0.999,0.0,99,0.2,0.0,0
2025,12,15,2,60,?9?9?9?9,-13.8,-17.0,77,99760,9999,9999,9999,0,0,0,999999,999999,999999,9999,322,4.49,2,2,9999,99999,9,999999999,999,0.999,0.0,99,0.2,0.0,0
2025,12,15,3,60,?9?9?9?9,-13.4,-16.9,75,99770,9999,9999,9999,0,0,0,999999,999999,999999,9999,320,4.55,1,1,9999,99999,9,999999999,999,0.999,0.0,99,0.2,0.0,0
2025,12,15,4,60,?9?9?9?9,-13.4,-16.9,76,99810,9999,9999,9999,0,0,0,999999,999999,999999,9999,316,4.92,1,1,9999,99999,9,999999999,999,0.999,0.0,99,0.2,0.0,0
2025,12,15,5,60,?9?9?9?9,-13.4,-16.8,75,99810,9999,9999,9999,0,0,0,999999,999999,999999,9999,316,4.84,2,2,9999,99999,9,999999999,999,0.999,0.0,99,0.2,0.0,0
2025,12,15,6,60,?9?9?9?9,-13.6,-16.9,76,99800,9999,9999,9999,0,0,0,999999,999999,999999,9999,307,4.21,1,1,9999,99999,9,999999999,999,0.999,0.0,99,0.2,0.0,0
2025,12,15,7,60,?9?9?9?9,-13.9,-17.0,77,99830,9999,9999,9999,0,0,0,999999,999999,999999,9999,300,3.94,5,5,9999,99999,9,999999999,999,0.999,0.0,99,0.2,0.0,0
2025,12,15,8,60,?9?9?9?9,-13.0,-15.9,79,99810,9999,9999,9999,0,0,0,999999,999999,999999,9999,284,4.17,3,3,9999,99999,9,999999999,999,0.999,0.0,99,0.2,0.0,0
2025,12,15,9,60,?9?9?9?9,-12.2,-15.8,75,99880,9999,9999,9999,7,67,4,999999,999999,999999,9999,290,4.63,8,8,9999,99999,9,999999999,999,0.999,0.0,99,0.2,0.0,0
2025,12,15,10,60,?9?9?9?9,-11.3,-15.9,69,99880,9999,9999,9999,93,343,50,999999,999999,999999,9999,293,4.46,8,8,9999,99999,9,999999999,999,0.999,0.0,99,0.2,0.0,0
2025,12,15,11,60,?9?9?9?9,-10.1,-15.8,63,99840,9999,9999,9999,203,478,91,999999,999999,999999,9999,289,3.45,10,10,9999,99999,9,999999999,999,0.999,0.0,99,0.2,0.0,0
2025,12,15,12,60,?9?9?9?9,-9.4,-15.4,62,99700,9999,9999,9999,218,143,174,999999,999999,999999,9999,287,4.02,10,10,9999,99999,9,999999999,999,0.999,0.0,99,0.2,0.0,0
2025,12,15,13,60,?9?9?9?9,-8.5,-14.9,60,99630,9999,9999,9999,242,112,204,999999,999999,999999,9999,286,4.27,10,10,9999,99999,9,999999999,999,0.999,0.0,99,0.2,0.0,0
2025,12,15,14,60,?9?9?9?9,-7.7,-15.0,56,99610,9999,9999,9999,267,281,174,999999,999999,999999,9999,299,5.24,6,6,9999,99999,9,999999999,999,0.999,0.0,99,0.2,0.0,0
2025,12,15,15,60,?9?9?9?9,-7.5,-14.6,57,99580,9999,9999,9999,261,616,89,999999,999999,999999,9999,292,4.35,6,6,9999,99999,9,999999999,999,0.999,0.0,99,0.2,0.0,0
2025,12,15,16,60,?9?9?9?9,-8.0,-14.5,60,99620,9999,9999,9999,146,376,75,999999,999999,999999,9999,278,3.28,9,9,9999,99999,9,999999999,999,0.999,0.0,99,0.2,0.0,0
2025,12,15,17,60,?9?9?9?9,-8.9,-14.4,65,99630,9999,9999,9999,35,110,26,999999,999999,999999,9999,272,2.75,10,10,9999,99999,9,999999999,999,0.999,0.0,99,0.2,0.0,0
2025,12,15,18,60,?9?9?9?9,-9.6,-13.9,71,99630,9999,9999,9999,0,0,0,999999,999999,999999,9999,255,2.07,10,10,9999,99999,9,999999999,999,0.999,0.0,99,0.2,0.0,0
2025,12,15,19,60,?9?9?9?9,-10.3,-13.6,76,99620,9999,9999,9999,0,0,0,999999,999999,999999,9999,225,2.19,10,10,9999,99999,9,999999999,999,0.999,0.0,99,0.2,0.0,0
2025,12,15,20,60,?9?9?9?9,-10.6,-13.8,78,99630,9999,9999,9999,0,0,0,999999,999999,999999,9999,237,2.32,10,10,9999,99999,9,999999999,999,0.999,0.0,99,0.2,0.0,0
2025,12,15,21,60,?9?9?9?9,-10.2,-13.2,79,99610,9999,9999,9999,0,0,0,999999,999999,999999,9999,234,2.58,10,10,9999,99999,9,999999999,999,0.999,0.0,99,0.2,0.0,0
2025,12,15,22,60,?9?9?9?9,-10.2,-13.1,80,99590,9999,9999,9999,0,0,0,999999,999999,999999,9999,229,2.38,10,10,9999,99999,9,999999999,999,0.999,0.001,99,0.2,0.1,1
2025,12,15,23,60,?9?9?9?9,-10.4,-12.9,82,99550,9999,9999,9999,0,0,0,999999,999999,999999,9999,220,2.27,8,8,9999,99999,9,999999999,999,0.999,0.001,99,0.2,0.0,0
2025,12,15,24,60,?9?9?9?9,-10.9,-13.1,84,99540,9999,9999,9999,0,0,0,999999,999999,999999,9999,216,2.29,6,6,9999,99999,9,999999999,999,0.999,0.0,99,0.2,0.0,0
2025,12,16,1,60,?9?9?9?9,-11.9,-14.1,84,99500,9999,9999,9999,0,0,0,999999,999999,999999,9999,208,2.26,4,4,9999,99999,9,999999999,999,0.999,0.0,99,0.2,0.0,0
2025,12,16,2,60,?9?9?9?9,-12.1,-14.2,84,99490,9999,9999,9999,0,0,0,999999,999999,999999,9999,208,2.48,3,3,9999,99999,9,999999999,999,0.999,0.0,99,0.2,0.0,0
2025,12,16,3,60,?9?9?9?9,-13.9,-15.9,85,99520,9999,9999,9999,0,0,0,999999,999999,999999,9999,226,1.8,6,6,9999,99999,9,999999999,999,0.999,0.0,99,0.2,0.0,0
2025,12,16,4,60,?9?9?9?9,-14.1,-15.9,86,99560,9999,9999,9999,0,0,0,999999,999999,999999,9999,248,1.46,6,6,9999,99999,9,999999999,999,0.999,0.0,99,0.2,0.0,0
2025,12,16,5,60,?9?9?9?9,-13.0,-15.1,84,99640,9999,9999,9999,0,0,0,999999,999999,999999,9999,240,1.39,4,4,9999,99999,9,999999999,999,0.999,0.0,99,0.2,0.0,0
2025,12,16,6,60,?9?9?9?9,-13.8,-15.6,86,99640,9999,9999,9999,0,0,0,999999,999999,999999,9999,228,1.2,3,3,9999,99999,9,999999999,999,0.999,0.0,99,0.2,0.0,0
2025,12,16,7,60,?9?9?9?9,-13.8,-15.4,87,99650,9999,9999,9999,0,0,0,999999,999999,999999,9999,232,1.21,1,1,9999,99999,9,999999999,999,0.999,0.0,99,0.2,0.0,0
2025,12,16,8,60,?9?9?9?9,-15.5,-16.7,91,99740,9999,9999,9999,0,0,0,999999,999999,999999,9999,257,1.13,10,10,9999,99999,9,999999999,999,0.999,0.0,99,0.2,0.0,0
2025,12,16,9,60,?9?9?9?9,-14.2,-15.6,89,99800,9999,9999,9999,5,23,4,999999,999999,999999,9999,258,1.64,10,10,9999,99999,9,999999999,999,0.999,0.0,99,0.2,0.0,0
2025,12,16,10,60,?9?9?9?9,-10.6,-12.7,84,99890,9999,9999,9999,66,194,42,999999,999999,999999,9999,231,2.13,9,9,9999,99999,9,999999999,999,0.999,0.0,99,0.2,0.0,0
2025,12,16,11,60,?9?9?9?9,-7.9,-11.5,76,99870,9999,9999,9999,161,313,88,999999,999999,999999,9999,201,1.93,6,6,9999,99999,9,999999999,999,0.999,0.0,99,0.2,0.0,0
2025,12,16,12,60,?9?9?9?9,-6.0,-9.8,74,99770,9999,9999,9999,273,499,120,999999,999999,999999,9999,197,2.97,10,10,9999,99999,9,999999999,999,0.999,0.0,99,0.2,0.0,0
2025,12,16,13,60,?9?9?9?9,-5.2,-8.9,76,99670,9999,9999,9999,273,315,166,999999,999999,999999,9999,197,3.5,6,6,9999,99999,9,999999999,999,0.999,0.0,99,0.2,0.0,0
2025,12,16,14,60,?9?9?9?9,-5.0,-8.4,77,99610,9999,9999,9999,290,472,134,999999,999999,999999,9999,197,3.81,9,9,9999,99999,9,999999999,999,0.999,0.0,99,0.2,0.0,0
2025,12,16,15,60,?9?9?9?9,-5.0,-7.9,80,99610,9999,9999,9999,191,183,140,999999,999999,999999,9999,191,3.82,10,10,9999,99999,9,999999999,999,0.999,0.0,99,0.2,0.0,0
2025,12,16,16,60,?9?9?9?9,-5.3,-7.8,83,99600,9999,9999,9999,126,280,73,999999,999999,999999,9999,195,4.45,10,10,9999,99999,9,999999999,999,0.999,0.0,99,0.2,0.0,0
2025,12,16,17,60,?9?9?9?9,-5.6,-7.7,85,99560,9999,9999,9999,35,110,26,999999,999999,999999,9999,202,4.87,10,10,9999,99999,9,999999999,999,0.999,0.0,99,0.2,0.0,0
2025,12,16,18,60,?9?9?9?9,-5.1,-7.5,83,99500,9999,9999,9999,0,0,0,999999,999999,999999,9999,204,5.26,10,10,9999,99999,9,999999999,999,0.999,0.0,99,0.2,0.0,0
2025,12,16,19,60,?9?9?9?9,-5.0,-7.4,83,99390,9999,9999,9999,0,0,0,999999,999999,999999,9999,202,5.36,10,10,9999,99999,9,999999999,999,0.999,0.0,99,0.2,0.0,0
2025,12,16,20,60,?9?9?9?9,-4.1,-6.7,82,99320,9999,9999,9999,0,0,0,999999,999999,999999,9999,200,5.79,10,10,9999,99999,9,999999999,999,0.999,0.0,99,0.2,0.0,0
2025,12,16,21,60,?9?9?9?9,-3.7,-7.1,77,99230,9999,9999,9999,0,0,0,999999,999999,999999,9999,209,6.43,10,10,9999,99999,9,999999999,999,0.999,0.0,99,0.2,0.0,0
2025,12,16,22,60,?9?9?9?9,-3.8,-7.7,74,99130,9999,9999,9999,0,0,0,999999,999999,999999,9999,209,6.6,10,10,9999,99999,9,999999999,999,0.999,0.0,99,0.2,0.0,0
2025,12,16,23,60,?9?9?9?9,-4.0,-7.6,76,99060,9999,9999,9999,0,0,0,999999,999999,999999,9999,204,6.0,10,10,9999,99999,9,999999999,999,0.999,0.0,99,0.2,0.0,0
2025,12,16,24,60,?9?9?9?9,-4.2,-7.3,78,98960,9999,9999,9999,0,0,0,999999,999999,999999,9999,200,6.19,10,10,9999,99999,9,999999999,999,0.999,0.0,99,0.2,0.0,0
2025,12,17,1,60,?9?9?9?9,-4.2,-7.3,79,98810,9999,9999,9999,0,0,0,999999,999999,999999,9999,200,6.88,10,10,9999,99999,9,999999999,999,0.999,0.0,99,0.2,0.0,0
2025,12,17,2,60,?9?9?9?9,-4.1,-7.6,77,98700,9999,9999,9999,0,0,0,999999,999999,999999,9999,202,6.53,10,10,9999,99999,9,999999999,999,0.999,0.0,99,0.2,0.0,0
2025,12,17,3,60,?9?9?9?9,-4.2,-7.7,77,98670,9999,9999,9999,0,0,0,999999,999999,999999,9999,203,5.92,10,10,9999,99999,9,999999999,999,0.999,0.0,99,0.2,0.0,0
2025,12,17,4,60,?9?9?9?9,-3.9,-7.4,77,98600,9999,9999,9999,0,0,0,999999,999999,999999,9999,202,5.9,10,10,9999,99999,9,999999999,999,0.999,0.0,99,0.2,0.0,0
2025,12,17,5,60,?9?9?9?9,-3.2,-6.9,76,98510,9999,9999,9999,0,0,0,999999,999999,999999,9999,204,5.93,10,10,9999,99999,9,999999999,999,0.999,0.0,99,0.2,0.0,0
2025,12,17,6,60,?9?9?9?9,-2.5,-6.0,77,98450,9999,9999,9999,0,0,0,999999,999999,999999,9999,205,5.91,10,10,9999,99999,9,999999999,999,0.999,0.0,99,0.2,0.0,0
2025,12,17,7,60,?9?9?9?9,-2.0,-5.2,78,98380,9999,9999,9999,0,0,0,999999,999999,999999,9999,202,6.3,10,10,9999,99999,9,999999999,999,0.999,0.0,99,0.2,0.0,0
2025,12,17,8,60,?9?9?9?9,-2.8,-5.7,80,98340,9999,9999,9999,0,0,0,999999,999999,999999,9999,203,5.58,10,10,9999,99999,9,999999999,999,0.999,0.0,99,0.2,0.0,0
2025,12,17,9,60,?9?9?9?9,-2.3,-4.9,82,98300,9999,9999,9999,4,0,4,999999,999999,999999,9999,204,5.35,10,10,9999,99999,9,999999999,999,0.999,0.0,99,0.2,0.0,0
2025,12,17,10,60,?9?9?9?9,-1.5,-4.0,83,98280,9999,9999,9999,24,0,24,999999,999999,999999,9999,202,4.71,10,10,9999,99999,9,999999999,999,0.999,0.0,99,0.2,0.0,0
2025,12,17,11,60,?9?9?9?9,-0.8,-3.1,84,98240,9999,9999,9999,47,0,47,999999,999999,999999,9999,203,4.82,10,10,9999,99999,9,999999999,999,0.999,0.0,99,0.2,0.0,0
2025,12,17,12,60,?9?9?9?9,-0.2,-2.2,86,98170,9999,9999,9999,49,0,49,999999,999999,999999,9999,200,4.52,10,10,9999,99999,9,999999999,999,0.999,0.0,99,0.2,0.0,0
2025,12,17,13,60,?9?9?9?9,0.4,-1.4,88,98110,9999,9999,9999,57,0,57,999999,999999,999999,9999,205,4.09,10,10,9999,99999,9,999999999,999,0.999,0.0,99,0.2,0.1,1
2025,12,17,14,60,?9?9?9?9,0.0,-1.4,91,98120,9999,9999,9999,51,0,51,999999,999999,999999,9999,198,3.89,10,10,9999,99999,9,999999999,999,0.999,0.001,99,0.2,0.2,1
2025,12,17,15,60,?9?9?9?9,0.6,-0.6,91,98170,9999,9999,9999,41,0,41,999999,999999,999999,9999,203,3.54,10,10,9999,99999,9,999999999,999,0.999,0.001,99,0.2,0.2,1
2025,12,17,16,60,?9?9?9?9,1.2,-0.2,90,98250,9999,9999,9999,25,0,25,999999,999999,999999,9999,222,2.76,10,10,9999,99999,9,999999999,999,0.999,0.001,99,0.2,0.3,1
2025,12,17,17,60,?9?9?9?9,1.2,-0.3,89,98360,9999,9999,9999,11,0,11,999999,999999,999999,9999,221,2.3,10,10,9999,99999,9,999999999,999,0.999,0.0,99,0.2,0.1,1
2025,12,17,18,60,?9?9?9?9,0.6,-0.4,93,98490,9999,9999,9999,0,0,0,999999,999999,999999,9999,232,2.46,10,10,9999,99999,9,999999999,999,0.999,0.0,99,0.2,0.1,1
2025,12,17,19,60,?9?9?9?9,1.5,-0.9,85,98710,9999,9999,9999,0,0,0,999999,999999,999999,9999,312,4.64,8,8,9999,99999,9,999999999,999,0.999,0.0,99,0.2,0.1,1
2025,12,17,20,60,?9?9?9?9,-0.8,-5.3,71,99070,9999,9999,9999,0,0,0,999999,999999,999999,9999,320,5.36,3,3,9999,99999,9,999999999,999,0.999,0.0,99,0.2,0.0,0
2025,12,17,21,60,?9?9?9?9,-4.2,-8.3,73,99300,9999,9999,9999,0,0,0,999999,999999,999999,9999,330,5.15,0,0,9999,99999,9,999999999,999,0.999,0.0,99,0.2,0.0,0
2025,12,17,22,60,?9?9?9?9,-6.3,-9.9,76,99570,9999,9999,9999,0,0,0,999999,999999,999999,9999,322,4.13,1,1,9999,99999,9,999999999,999,0.999,0.0,99,0.2,0.0,0
2025,12,17,23,60,?9?9?9?9,-7.8,-10.8,79,99770,9999,9999,9999,0,0,0,999999,999999,999999,9999,310,2.59,6,6,9999,99999,9,999999999,999,0.999,0.0,99,0.2,0.0,0
2025,12,17,24,60,?9?9?9?9,-8.9,-11.6,80,99940,9999,9999,9999,0,0,0,999999,999999,999999,9999,289,2.12,8,8,9999,99999,9,999999999,999,0.999,0.0,99,0.2,0.0,0
2025,12,18,1,60,?9?9?9?9,-9.2,-12.0,80,100060,9999,9999,9999,0,0,0,999999,999999,999999,9999,261,1.62,8,8,9999,99999,9,999999999,999,0.999,0.0,99,0.2,0.0,0
2025,12,18,2,60,?9?9?9?9,-10.1,-12.8,80,100030,9999,9999,9999,0,0,0,999999,999999,999999,9999,267,1.7,0,0,9999,99999,9,999999999,999,0.999,0.0,99,0.2,0.0,0
2025,12,18,3,60,?9?9?9?9,-9.4,-12.1,80,100190,9999,9999,9999,0,0,0,999999,999999,999999,9999,258,2.35,0,0,9999,99999,9,999999999,999,0.999,0.0,99,0.2,0.0,0
2025,12,18,4,60,?9?9?9?9,-11.0,-13.4,82,100150,9999,9999,9999,0,0,0,999999,999999,999999,9999,293,1.52,2,2,9999,99999,9,999999999,999,0.999,0.0,99,0.2,0.0,0
2025,12,18,5,60,?9?9?9?9,-11.9,-14.1,83,100150,9999,9999,9999,0,0,0,999999,999999,999999,9999,315,1.63,10,10,9999,99999,9,999999999,999,0.999,0.0,99,0.2,0.0,0
2025,12,18,6,60,?9?9?9?9,-12.9,-14.6,86,100200,9999,9999,9999,0,0,0,999999,999999,999999,9999,299,0.51,9,9,9999,99999,9,999999999,999,0.999,0.0,99,0.2,0.0,0
2025,12,18,7,60,?9?9?9?9,-12.9,-14.6,86,100230,9999,9999,9999,0,0,0,999999,999999,999999,9999,279,0.3,7,7,9999,99999,9,999999999,999,0.999,0.0,99,0.2,0.0,0
2025,12,18,8,60,?9?9?9?9,-13.6,-14.9,90,100380,9999,9999,9999,0,0,0,999999,999999,999999,9999,239,1.86,10,10,9999,99999,9,999999999,999,0.999,0.0,99,0.2,0.0,0
2025,12,18,9,60,?9?9?9?9,-12.8,-14.3,89,100370,9999,9999,9999,5,24,4,999999,999999,999999,9999,220,1.77,8,8,9999,99999,9,999999999,999,0.999,0.0,99,0.2,0.0,0
2025,12,18,10,60,?9?9?9?9,-9.5,-12.5,79,100320,9999,9999,9999,73,207,48,999999,999999,999999,9999,187,1.26,10,10,9999,99999,9,999999999,999,0.999,0.0,99,0.2,0.0,0
2025,12,18,11,60,?9?9?9?9,-7.4,-11.0,75,100320,9999,9999,9999,72,0,72,999999,999999,999999,9999,139,1.67,10,10,9999,99999,9,999999999,999,0.999,0.0,99,0.2,0.0,0
2025,12,18,12,60,?9?9?9?9,-6.3,-9.8,77,100250,9999,9999,9999,119,13,115,999999,999999,999999,9999,124,1.51,10,10,9999,99999,9,999999999,999,0.999,0.0,99,0.2,0.0,0
2025,12,18,13,60,?9?9?9?9,-5.3,-8.4,79,100100,9999,9999,9999,147,71,123,999999,999999,999999,9999,99,1.67,10,10,9999,99999,9,999999999,999,0.999,0.0,99,0.2,0.0,0
2025,12,18,14,60,?9?9?9?9,-4.4,-7.3,80,100030,9999,9999,9999,226,145,178,999999,999999,999999,9999,96,1.86,10,10,9999,99999,9,999999999,999,0.999,0.0,99,0.2,0.0,0
2025,12,18,15,60,?9?9?9?9,-3.7,-6.5,81,99850,9999,9999,9999,180,97,153,999999,999999,999999,9999,92,1.55,10,10,9999,99999,9,999999999,999,0.999,0.0,99,0.2,0.0,0
2025,12,18,16,60,?9?9?9?9,-3.7,-6.2,83,99690,9999,9999,9999,107,74,93,999999,999999,999999,9999,102,2.4,10,10,9999,99999,9,999999999,999,0.999,0.0,99,0.2,0.0,0
2025,12,18,17,60,?9?9?9?9,-4.1,-6.2,86,99570,9999,9999,9999,26,0,26,999999,999999,999999,9999,120,1.9,10,10,9999,99999,9,999999999,999,0.999,0.0,99,0.2,0.0,0
2025,12,18,18,60,?9?9?9?9,-2.8,-5.6,81,99480,9999,9999,9999,0,0,0,999999,999999,999999,9999,165,3.36,10,10,9999,99999,9,999999999,999,0.999,0.0,99,0.2,0.0,0
2025,12,18,19,60,?9?9?9?9,0.6,-4.6,68,99410,9999,9999,9999,0,0,0,999999,999999,999999,9999,191,5.34,10,10,9999,99999,9,999999999,999,0.999,0.0,99,0.2,0.0,0
2025,12,18,20,60,?9?9?9?9,1.2,-4.8,64,99300,9999,9999,9999,0,0,0,999999,999999,999999,9999,198,5.68,10,10,9999,99999,9,999999999,999,0.999,0.0,99,0.2,0.0,0
2025,12,18,21,60,?9?9?9?9,1.6,-4.0,66,99230,9999,9999,9999,0,0,0,999999,999999,999999,9999,196,5.76,9,9,9999,99999,9,999999999,999,0.999,0.0,99,0.2,0.0,0
2025,12,18,22,60,?9?9?9?9,2.0,-3.0,70,99140,9999,9999,9999,0,0,0,999999,999999,999999,9999,194,5.82,10,10,9999,99999,9,999999999,999,0.999,0.0,99,0.2,0.0,0
2025,12,18,23,60,?9?9?9?9,2.4,-2.1,72,99060,9999,9999,9999,0,0,0,999999,999999,999999,9999,194,6.6,10,10,9999,99999,9,999999999,999,0.999,0.0,99,0.2,0.0,0
2025,12,18,24,60,?9?9?9?9,2.7,-1.4,75,98990,9999,9999,9999,0,0,0,999999,999999,999999,9999,196,6.66,10,10,9999,99999,9,999999999,999,0.999,0.0,99,0.2,0.0,0
2025,12,19,1,60,?9?9?9?9,2.5,-0.6,80,98930,9999,9999,9999,0,0,0,999999,999999,999999,9999,194,6.25,10,10,9999,99999,9,999999999,999,0.999,0.0,99,0.2,0.0,0
2025,12,19,2,60,?9?9?9?9,2.1,-1.1,79,98800,9999,9999,9999,0,0,0,999999,999999,999999,9999,185,4.97,10,10,9999,99999,9,999999999,999,0.999,0.0,99,0.2,0.0,0
2025,12,19,3,60,?9?9?9?9,3.2,0.4,82,98720,9999,9999,9999,0,0,0,999999,999999,999999,9999,183,5.26,10,10,9999,99999,9,999999999,999,0.999,0.0,99,0.2,0.0,0
2025,12,19,4,60,?9?9?9?9,3.5,1.6,88,98600,9999,9999,9999,0,0,0,999999,999999,999999,9999,182,4.5,10,10,9999,99999,9,999999999,999,0.999,0.0,99,0.2,1.3,1
2025,12,19,5,60,?9?9?9?9,3.5,2.0,90,98440,9999,9999,9999,0,0,0,999999,999999,999999,9999,172,4.4,10,10,9999,99999,9,999999999,999,0.999,0.0,99,0.2,1.4,1
2025,12,19,6,60,?9?9?9?9,3.0,1.8,91,98280,9999,9999,9999,0,0,0,999999,999999,999999,9999,155,3.47,10,10,9999,99999,9,999999999,999,0.999,0.0,99,0.2,1.0,1
2025,12,19,7,60,?9?9?9?9,3.1,1.9,92,98110,9999,9999,9999,0,0,0,999999,999999,999999,9999,148,3.23,10,10,9999,99999,9,999999999,999,0.999,0.0,99,0.2,0.4,1
2025,12,19,8,60,?9?9?9?9,3.3,2.5,94,97840,9999,9999,9999,0,0,0,999999,999999,999999,9999,135,3.75,10,10,9999,99999,9,999999999,999,0.999,0.0,99,0.2,0.2,1
2025,12,19,9,60,?9?9?9?9,4.4,3.3,93,97650,9999,9999,9999,2,0,2,999999,999999,999999,9999,143,4.28,10,10,9999,99999,9,999999999,999,0.999,0.0,99,0.2,0.6,1
2025,12,19,10,60,?9?9?9?9,5.4,3.8,89,97430,9999,9999,9999,25,0,25,999999,999999,999999,9999,147,4.34,10,10,9999,99999,9,999999999,999,0.999,0.0,99,0.2,0.7,1
2025,12,19,11,60,?9?9?9?9,6.2,3.8,85,97240,9999,9999,9999,61,0,61,999999,999999,999999,9999,145,3.98,10,10,9999,99999,9,999999999,999,0.999,0.0,99,0.2,0.1,1
2025,12,19,12,60,?9?9?9?9,6.2,4.1,86,96980,9999,9999,9999,26,0,26,999999,999999,999999,9999,141,4.33,10,10,9999,99999,9,999999999,999,0.999,0.0,99,0.2,0.6,1
2025,12,19,13,60,?9?9?9?9,6.7,4.3,85,96740,9999,9999,9999,25,0,25,999999,999999,999999,9999,154,3.06,10,10,9999,99999,9,999999999,999,0.999,0.0,99,0.2,2.7,1
2025,12,19,14,60,?9?9?9?9,6.4,4.9,90,96590,9999,9999,9999,21,0,21,999999,999999,999999,9999,218,5.09,10,10,9999,99999,9,999999999,999,0.999,0.0,99,0.2,5.5,1
2025,12,19,15,60,?9?9?9?9,5.7,3.7,87,96560,9999,9999,9999,94,18,89,999999,999999,999999,9999,196,5.21,10,10,9999,99999,9,999999999,999,0.999,0.0,99,0.2,1.3,1
2025,12,19,16,60,?9?9?9?9,4.2,2.5,89,96550,9999,9999,9999,26,0,26,999999,999999,999999,9999,222,4.57,10,10,9999,99999,9,999999999,999,0.999,0.0,99,0.2,1.3,1
2025,12,19,17,60,?9?9?9?9,3.1,0.9,86,96610,9999,9999,9999,9,0,9,999999,999999,999999,9999,214,4.26,10,10,9999,99999,9,999999999,999,0.999,0.0,99,0.2,0.7,1
2025,12,19,18,60,?9?9?9?9,2.1,0.2,87,96710,9999,9999,9999,0,0,0,999999,999999,999999,9999,229,5.14,10,10,9999,99999,9,999999999,999,0.999,0.0,99,0.2,0.1,1
2025,12,19,19,60,?9?9?9?9,2.0,-0.2,86,96780,9999,9999,9999,0,0,0,999999,999999,999999,9999,218,4.52,6,6,9999,99999,9,999999999,999,0.999,0.0,99,0.2,0.0,0
2025,12,19,20,60,?9?9?9?9,2.2,-0.1,84,96760,9999,9999,9999,0,0,0,999999,999999,999999,9999,229,5.6,10,10,9999,99999,9,999999999,999,0.999,0.0,99,0.2,0.0,0
2025,12,19,21,60,?9?9?9?9,1.4,-1.2,83,96800,9999,9999,9999,0,0,0,999999,999999,999999,9999,229,5.21,7,7,9999,99999,9,999999999,999,0.999,0.0,99,0.2,0.0,0
2025,12,19,22,60,?9?9?9?9,0.4,-2.3,81,96870,9999,9999,9999,0,0,0,999999,999999,999999,9999,226,5.83,10,10,9999,99999,9,999999999,999,0.999,0.0,99,0.2,0.0,0
2025,12,19,23,60,?9?9?9?9,-0.6,-4.3,76,97050,9999,9999,9999,0,0,0,999999,999999,999999,9999,273,7.81,8,8,9999,99999,9,999999999,999,0.999,0.0,99,0.2,0.0,0
2025,12,19,24,60,?9?9?9?9,-5.4,-10.4,68,97360,9999,9999,9999,0,0,0,999999,999999,999999,9999,284,7.87,10,10,9999,99999,9,999999999,999,0.999,0.0,99,0.2,0.0,0
2025,12,20,1,60,?9?9?9?9,-7.3,-11.8,70,97660,9999,9999,9999,0,0,0,999999,999999,999999,9999,271,5.0,10,10,9999,99999,9,999999999,999,0.999,0.0,99,0.2,0.0,0
2025,12,20,2,60,?9?9?9?9,-7.7,-12.4,69,98040,9999,9999,9999,0,0,0,999999,999999,999999,9999,267,5.31,8,8,9999,99999,9,999999999,999,0.999,0.0,99,0.2,0.0,0
2025,12,20,3,60,?9?9?9?9,-8.1,-12.4,71,98330,9999,9999,9999,0,0,0,999999,999999,999999,9999,254,4.94,10,10,9999,99999,9,999999999,999,0.999,0.0,99,0.2,0.0,0
2025,12,20,4,60,?9?9?9?9,-8.6,-12.4,74,98560,9999,9999,9999,0,0,0,999999,999999,999999,9999,247,4.55,7,7,9999,99999,9,999999999,999,0.999,0.0,99,0.2,0.0,0
2025,12,20,5,60,?9?9?9?9,-9.0,-12.9,74,98820,9999,9999,9999,0,0,0,999999,999999,999999,9999,263,4.58,8,8,9999,99999,9,999999999,999,0.999,0.0,99,0.2,0.0,0
2025,12,20,6,60,?9?9?9?9,-9.5,-13.6,72,99120,9999,9999,9999,0,0,0,999999,999999,999999,9999,282,5.27,2,2,9999,99999,9,999999999,999,0.999,0.0,99,0.2,0.0,0
2025,12,20,7,60,?9?9?9?9,-10.1,-14.4,71,99340,9999,9999,9999,0,0,0,999999,999999,999999,9999,291,4.83,3,3,9999,99999,9,999999999,999,0.999,0.0,99,0.2,0.0,0
2025,12,20,8,60,?9?9?9?9,-9.9,-14.2,71,99550,9999,9999,9999,0,0,0,999999,999999,999999,9999,266,4.01,1,1,9999,99999,9,999999999,999,0.999,0.0,99,0.2,0.0,0
2025,12,20,9,60,?9?9?9?9,-10.9,-14.4,76,99730,9999,9999,9999,6,49,4,999999,999999,999999,9999,254,3.07,5,5,9999,99999,9,999999999,999,0.999,0.0,99,0.2,0.0,0
2025,12,20,10,60,?9?9?9?9,-10.3,-13.9,75,99850,9999,9999,9999,90,440,38,999999,999999,999999,9999,242,2.59,10,10,9999,99999,9,999999999,999,0.999,0.0,99,0.2,0.0,0
2025,12,20,11,60,?9?9?9?9,-9.2,-13.9,69,99840,9999,9999,9999,193,473,85,999999,999999,999999,9999,247,2.33,6,6,9999,99999,9,999999999,999,0.999,0.0,99,0.2,0.0,0
2025,12,20,12,60,?9?9?9?9,-8.5,-14.2,63,99780,9999,9999,9999,295,702,82,999999,999999,999999,9999,276,2.26,10,10,9999,99999,9,999999999,999,0.999,0.0,99,0.2,0.0,0
2025,12,20,13,60,?9?9?9?9,-7.8,-14.0,61,99750,9999,9999,9999,285,408,147,999999,999999,999999,9999,241,1.84,10,10,9999,99999,9,999999999,999,0.999,0.0,99,0.2,0.0,0
2025,12,20,14,60,?9?9?9?9,-7.6,-13.3,64,99760,9999,9999,9999,290,478,132,999999,999999,999999,9999,216,2.86,10,10,9999,99999,9,999999999,999,0.999,0.0,99,0.2,0.0,0
2025,12,20,15,60,?9?9?9?9,-8.0,-13.0,67,99700,9999,9999,9999,168,89,143,999999,999999,999999,9999,211,3.1,10,10,9999,99999,9,999999999,999,0.999,0.0,99,0.2,0.0,0
2025,12,20,16,60,?9?9?9?9,-8.2,-12.6,71,99790,9999,9999,9999,72,0,72,999999,999999,999999,9999,211,3.5,10,10,9999,99999,9,999999999,999,0.999,0.0,99,0.2,0.0,0
2025,12,20,17,60,?9?9?9?9,-8.8,-12.1,77,99610,9999,9999,9999,16,0,16,999999,999999,999999,9999,171,3.19,10,10,9999,99999,9,999999999,999,0.999,0.001,99,0.2,0.1,1
2025,12,20,18,60,?9?9?9?9,-8.9,-11.6,81,99450,9999,9999,9999,0,0,0,999999,999999,999999,9999,166,3.6,10,10,9999,99999,9,999999999,999,0.999,0.001,99,0.2,0.2,1
2025,12,20,19,60,?9?9?9?9,-8.5,-10.9,82,99390,9999,9999,9999,0,0,0,999999,999999,999999,9999,164,3.69,10,10,9999,99999,9,999999999,999,0.999,0.002,99,0.2,0.3,1
2025,12,20,20,60,?9?9?9?9,-8.1,-10.6,82,99110,9999,9999,9999,0,0,0,999999,999999,999999,9999,142,3.56,10,10,9999,99999,9,999999999,999,0.999,0.002,99,0.2,0.3,1
2025,12,20,21,60,?9?9?9?9,-7.4,-9.9,82,98960,9999,9999,9999,0,0,0,999999,999999,999999,9999,139,3.23,10,10,9999,99999,9,999999999,999,0.999,0.002,99,0.2,0.3,1
2025,12,20,22,60,?9?9?9?9,-6.9,-9.2,83,98820,9999,9999,9999,0,0,0,999999,999999,999999,9999,129,2.84,10,10,9999,99999,9,999999999,999,0.999,0.005,99,0.2,0.7,1
2025,12,20,23,60,?9?9?9?9,-6.6,-8.6,86,98680,9999,9999,9999,0,0,0,999999,999999,999999,9999,114,2.3,10,10,9999,99999,9,999999999,999,0.999,0.006,99,0.2,0.9,1
2025,12,20,24,60,?9?9?9?9,-5.9,-7.5,88,98580,9999,9999,9999,0,0,0,999999,999999,999999,9999,136,2.37,10,10,9999,99999,9,999999999,999,0.999,0.005,99,0.2,0.7,1
2025,12,21,1,60,?9?9?9?9,-4.3,-5.7,90,98470,9999,9999,9999,0,0,0,999999,999999,999999,9999,178,3.3,10,10,9999,99999,9,999999999,999,0.999,0.002,99,0.2,0.3,1
2025,12,21,2,60,?9?9?9?9,-4.3,-5.2,93,98460,9999,9999,9999,0,0,0,999999,999999,999999,9999,191,2.7,10,10,9999,99999,9,999999999,999,0.999,0.001,99,0.2,0.2,1
2025,12,21,3,60,?9?9?9?9,-3.3,-4.3,92,98470,9999,9999,9999,0,0,0,999999,999999,999999,9999,205,3.24,10,10,9999,99999,9,999999999,999,0.999,0.001,99,0.2,0.1,1
2025,12,21,4,60,?9?9?9?9,-2.6,-3.9,91,98410,9999,9999,9999,0,0,0,999999,999999,999999,9999,206,3.4,10,10,9999,99999,9,999999999,999,0.999,0.0,99,0.2,0.0,0
2025,12,21,5,60,?9?9?9?9,-2.1,-3.5,90,98290,9999,9999,9999,0,0,0,999999,999999,999999,9999,197,3.65,6,6,9999,99999,9,999999999,999,0.999,0.0,99,0.2,0.0,0
2025,12,21,6,60,?9?9?9?9,-2.5,-4.1,89,98200,9999,9999,9999,0,0,0,999999,999999,999999,9999,202,3.99,4,4,9999,99999,9,999999999,999,0.999,0.0,99,0.2,0.0,0
2025,12,21,7,60,?9?9?9?9,-2.0,-4.3,85,98140,9999,9999,9999,0,0,0,999999,999999,999999,9999,214,5.05,10,10,9999,99999,9,999999999,999,0.999,0.005,99,0.2,0.7,1
2025,12,21,8,60,?9?9?9?9,-2.3,-4.7,84,98230,9999,9999,9999,0,0,0,999999,999999,999999,9999,213,4.23,6,6,9999,99999,9,999999999,999,0.999,0.001,99,0.2,0.2,1
2025,12,21,9,60,?9?9?9?9,-1.2,-4.9,76,98320,9999,9999,9999,4,25,3,999999,999999,999999,9999,243,6.1,10,10,9999,99999,9,999999999,999,0.999,0.0,99,0.2,0.0,0
2025,12,21,10,60,?9?9?9?9,-1.5,-5.4,74,98520,9999,9999,9999,60,85,50,999999,999999,999999,9999,258,6.08,8,8,9999,99999,9,999999999,999,0.999,0.0,99,0.2,0.0,0
2025,12,21,11,60,?9?9?9?9,-1.9,-6.1,73,98700,9999,9999,9999,125,163,88,999999,999999,999999,9999,269,5.8,8,8,9999,99999,9,999999999,999,0.999,0.0,99,0.2,0.0,0
2025,12,21,12,60,?9?9?9?9,-2.4,-7.3,69,98880,9999,9999,9999,238,287,151,999999,999999,999999,9999,273,6.21,8,8,9999,99999,9,999999999,999,0.999,0.0,99,0.2,0.0,0
2025,12,21,13,60,?9?9?9?9,-3.3,-8.4,68,99020,9999,9999,9999,235,198,168,999999,999999,999999,9999,280,6.95,10,10,9999,99999,9,999999999,999,0.999,0.0,99,0.2,0.0,0
2025,12,21,14,60,?9?9?9?9,-2.8,-7.8,68,99170,9999,9999,9999,168,33,157,999999,999999,999999,9999,280,6.6,10,10,9999,99999,9,999999999,999,0.999,0.0,99,0.2,0.0,0
2025,12,21,15,60,?9?9?9?9,-3.6,-8.8,67,99320,9999,9999,9999,102,7,100,999999,999999,999999,9999,285,5.58,10,10,9999,99999,9,999999999,999,0.999,0.0,99,0.2,0.0,0
2025,12,21,16,60,?9?9?9?9,-4.3,-9.9,65,99480,9999,9999,9999,77,5,76,999999,999999,999999,9999,289,5.12,8,8,9999,99999,9,999999999,999,0.999,0.0,99,0.2,0.0,0
2025,12,21,17,60,?9?9?9?9,-6.2,-11.4,67,99640,9999,9999,9999,42,214,24,999999,999999,999999,9999,303,4.99,3,3,9999,99999,9,999999999,999,0.999,0.0,99,0.2,0.0,0
2025,12,21,18,60,?9?9?9?9,-7.8,-12.4,69,99800,9999,9999,9999,0,0,0,999999,999999,999999,9999,301,4.8,9,9,9999,99999,9,999999999,999,0.999,0.0,99,0.2,0.0,0
2025,12,21,19,60,?9?9?9?9,-9.0,-13.4,70,99940,9999,9999,9999,0,0,0,999999,999999,999999,9999,300,4.57,7,7,9999,99999,9,999999999,999,0.999,0.0,99,0.2,0.0,0
2025,12,21,20,60,?9?9?9?9,-9.7,-14.2,70,100070,9999,9999,9999,0,0,0,999999,999999,999999,9999,297,4.49,0,0,9999,99999,9,999999999,999,0.999,0.0,99,0.2,0.0,0
2025,12,21,21,60,?9?9?9?9,-10.4,-14.9,69,100180,9999,9999,9999,0,0,0,999999,999999,999999,9999,305,4.34,0,0,9999,99999,9,999999999,999,0.999,0.0,99,0.2,0.0,0
2025,12,21,22,60,?9?9?9?9,-10.9,-15.5,69,100260,9999,9999,9999,0,0,0,999999,999999,999999,9999,310,4.26,0,0,9999,99999,9,999999999,999,0.999,0.0,99,0.2,0.0,0
2025,12,21,23,60,?9?9?9?9,-11.4,-15.8,70,100320,9999,9999,9999,0,0,0,999999,999999,999999,9999,316,4.49,0,0,9999,99999,9,999999999,999,0.999,0.0,99,0.2,0.0,0
2025,12,21,24,60,?9?9?9?9,-11.9,-16.1,71,100410,9999,9999,9999,0,0,0,999999,999999,999999,9999,321,4.58,0,0,9999,99999,9,999999999,999,0.999,0.0,99,0.2,0.0,0
2025,12,22,1,60,?9?9?9?9,-12.4,-16.5,72,100480,9999,9999,9999,0,0,0,999999,999999,999999,9999,325,3.91,3,3,9999,99999,9,999999999,999,0.999,0.0,99,0.2,0.0,0
2025,12,22,2,60,?9?9?9?9,-12.9,-16.2,76,100540,9999,9999,9999,0,0,0,999999,999999,999999,9999,317,2.48,6,6,9999,99999,9,999999999,999,0.999,0.0,99,0.2,0.0,0
2025,12,22,3,60,?9?9?9?9,-13.6,-16.9,77,100660,9999,9999,9999,0,0,0,999999,999999,999999,9999,302,2.0,9,9,9999,99999,9,999999999,999,0.999,0.0,99,0.2,0.0,0
2025,12,22,4,60,?9?9?9?9,-13.0,-16.2,77,100760,9999,9999,9999,0,0,0,999999,999999,999999,9999,302,2.47,10,10,9999,99999,9,999999999,999,0.999,0.0,99,0.2,0.0,0
2025,12,22,5,60,?9?9?9?9,-13.1,-16.5,76,100810,9999,9999,9999,0,0,0,999999,999999,999999,9999,300,3.11,4,4,9999,99999,9,999999999,999,0.999,0.0,99,0.2,0.0,0
2025,12,22,6,60,?9?9?9?9,-14.2,-17.2,78,100870,9999,9999,9999,0,0,0,999999,999999,999999,9999,307,3.11,0,0,9999,99999,9,999999999,999,0.999,0.0,99,0.2,0.0,0
2025,12,22,7,60,?9?9?9?9,-15.3,-18.1,79,100940,9999,9999,9999,0,0,0,999999,999999,999999,9999,302,2.9,0,0,9999,99999,9,999999999,999,0.999,0.0,99,0.2,0.0,0
2025,12,22,8,60,?9?9?9?9,-15.2,-18.5,76,100950,9999,9999,9999,0,0,0,999999,999999,999999,9999,272,2.5,1,1,9999,99999,9,999999999,999,0.999,0.0,99,0.2,0.0,0
2025,12,22,9,60,?9?9?9?9,-17.2,-20.0,79,100940,9999,9999,9999,5,50,3,999999,999999,999999,9999,268,1.85,0,0,9999,99999,9,999999999,999,0.999,0.0,99,0.2,0.0,0
2025,12,22,10,60,?9?9?9?9,-15.1,-18.4,76,101010,9999,9999,9999,92,508,33,999999,999999,999999,9999,269,2.0,0,0,9999,99999,9,999999999,999,0.999,0.0,99,0.2,0.0,0
2025,12,22,11,60,?9?9?9?9,-13.1,-17.5,69,101000,9999,9999,9999,214,697,56,999999,999999,999999,9999,263,1.26,0,0,9999,99999,9,999999999,999,0.999,0.0,99,0.2,0.0,0
2025,12,22,12,60,?9?9?9?9,-11.5,-16.9,64,100970,9999,9999,9999,304,783,67,999999,999999,999999,9999,255,1.55,1,1,9999,99999,9,999999999,999,0.999,0.0,99,0.2,0.0,0
2025,12,22,13,60,?9?9?9?9,-10.6,-16.4,62,100890,9999,9999,9999,337,740,87,999999,999999,999999,9999,223,1.24,5,5,9999,99999,9,999999999,999,0.999,0.0,99,0.2,0.0,0
2025,12,22,14,60,?9?9?9?9,-9.6,-15.5,62,100820,9999,9999,9999,325,710,90,999999,999999,999999,9999,204,2.13,9,9,9999,99999,9,999999999,999,0.999,0.0,99,0.2,0.0,0
2025,12,22,15,60,?9?9?9?9,-9.9,-14.9,67,100790,9999,9999,9999,226,355,126,999999,999999,999999,9999,194,2.27,8,8,9999,99999,9,999999999,999,0.999,0.0,99,0.2,0.0,0
2025,12,22,16,60,?9?9?9?9,-10.7,-14.3,75,100770,9999,9999,9999,126,197,88,999999,999999,999999,9999,192,2.61,10,10,9999,99999,9,999999999,999,0.999,0.0,99,0.2,0.0,0
2025,12,22,17,60,?9?9?9?9,-11.2,-14.0,80,100740,9999,9999,9999,34,94,26,999999,999999,999999,9999,203,1.68,10,10,9999,99999,9,999999999,999,0.999,0.0,99,0.2,0.0,0
2025,12,22,18,60,?9?9?9?9,-11.4,-13.9,82,100730,9999,9999,9999,0,0,0,999999,999999,999999,9999,214,1.51,10,10,9999,99999,9,999999999,999,0.999,0.0,99,0.2,0.0,0
2025,12,22,19,60,?9?9?9?9,-12.8,-15.0,84,100730,9999,9999,9999,0,0,0,999999,999999,999999,9999,233,1.68,9,9,9999,99999,9,999999999,999,0.999,0.0,99,0.2,0.0,0
2025,12,22,20,60,?9?9?9?9,-13.0,-15.2,84,100720,9999,9999,9999,0,0,0,999999,999999,999999,9999,250,1.64,8,8,9999,99999,9,999999999,999,0.999,0.0,99,0.2,0.0,0
2025,12,22,21,60,?9?9?9?9,-14.5,-16.5,84,100690,9999,9999,9999,0,0,0,999999,999999,999999,9999,256,1.65,1,1,9999,99999,9,999999999,999,0.999,0.0,99,0.2,0.0,0
2025,12,22,22,60,?9?9?9?9,-16.1,-18.0,86,100640,9999,9999,9999,0,0,0,999999,999999,999999,9999,275,1.71,1,1,9999,99999,9,999999999,999,0.999,0.0,99,0.2,0.0,0
2025,12,22,23,60,?9?9?9?9,-17.1,-18.9,86,100600,9999,9999,9999,0,0,0,999999,999999,999999,9999,299,1.77,0,0,9999,99999,9,999999999,999,0.999,0.0,99,0.2,0.0,0
2025,12,22,24,60,?9?9?9?9,-17.6,-19.5,85,100560,9999,9999,9999,0,0,0,999999,999999,999999,9999,311,1.91,0,0,9999,99999,9,999999999,999,0.999,0.0,99,0.2,0.0,0
2025,12,23,1,60,?9?9?9?9,-18.0,-19.9,85,100550,9999,9999,9999,0,0,0,999999,999999,999999,9999,308,2.1,1,1,9999,99999,9,999999999,999,0.999,0.0,99,0.2,0.0,0
2025,12,23,2,60,?9?9?9?9,-18.3,-20.5,83,100590,9999,9999,9999,0,0,0,999999,999999,999999,9999,318,2.41,0,0,9999,99999,9,999999999,999,0.999,0.0,99,0.2,0.0,0
2025,12,23,3,60,?9?9?9?9,-17.6,-20.0,82,100660,9999,9999,9999,0,0,0,999999,999999,999999,9999,320,2.34,0,0,9999,99999,9,999999999,999,0.999,0.0,99,0.2,0.0,0
2025,12,23,4,60,?9?9?9?9,-16.5,-19.1,80,100670,9999,9999,9999,0,0,0,999999,999999,999999,9999,332,2.48,0,0,9999,99999,9,999999999,999,0.999,0.0,99,0.2,0.0,0
2025,12,23,5,60,?9?9?9?9,-16.3,-18.9,81,100650,9999,9999,9999,0,0,0,999999,999999,999999,9999,346,2.47,2,2,9999,99999,9,999999999,999,0.999,0.0,99,0.2,0.0,0
2025,12,23,6,60,?9?9?9?9,-16.6,-19.2,80,100590,9999,9999,9999,0,0,0,999999,999999,999999,9999,11,2.04,1,1,9999,99999,9,999999999,999,0.999,0.0,99,0.2,0.0,0
2025,12,23,7,60,?9?9?9?9,-19.6,-21.5,85,100550,9999,9999,9999,0,0,0,999999,999999,999999,9999,12,1.89,5,5,9999,99999,9,999999999,999,0.999,0.0,99,0.2,0.0,0
2025,12,23,8,60,?9?9?9?9,-17.8,-20.4,80,100560,9999,9999,9999,0,0,0,999999,999999,999999,9999,11,1.53,10,10,9999,99999,9,999999999,999,0.999,0.0,99,0.2,0.0,0
2025,12,23,9,60,?9?9?9?9,-17.4,-19.9,81,100550,9999,9999,9999,3,0,3,999999,999999,999999,9999,16,1.82,10,10,9999,99999,9,999999999,999,0.999,0.0,99,0.2,0.0,0
2025,12,23,10,60,?9?9?9?9,-15.9,-18.6,79,100560,9999,9999,9999,41,0,41,999999,999999,999999,9999,17,1.88,10,10,9999,99999,9,999999999,999,0.999,0.0,99,0.2,0.0,0
2025,12,23,11,60,?9?9?9?9,-14.2,-17.5,77,100560,9999,9999,9999,95,31,88,999999,999999,999999,9999,21,1.71,10,10,9999,99999,9,999999999,999,0.999,0.0,99,0.2,0.0,0
2025,12,23,12,60,?9?9?9?9,-13.1,-16.6,75,100430,9999,9999,9999,129,33,119,999999,999999,999999,9999,46,1.66,10,10,9999,99999,9,999999999,999,0.999,0.0,99,0.2,0.0,0
2025,12,23,13,60,?9?9?9?9,-12.3,-15.9,75,100340,9999,9999,9999,133,3,132,999999,999999,999999,9999,55,1.4,10,10,9999,99999,9,999999999,999,0.999,0.0,99,0.2,0.0,0
2025,12,23,14,60,?9?9?9?9,-12.1,-14.8,80,100160,9999,9999,9999,114,12,110,999999,999999,999999,9999,49,2.38,10,10,9999,99999,9,999999999,999,0.999,0.0,99,0.2,0.0,0
2025,12,23,15,60,?9?9?9?9,-11.4,-14.1,81,100090,9999,9999,9999,89,0,89,999999,999999,999999,9999,46,2.44,10,10,9999,99999,9,999999999,999,0.999,0.0,99,0.2,0.0,0
2025,12,23,16,60,?9?9?9?9,-11.1,-13.6,82,100060,9999,9999,9999,45,0,45,999999,999999,999999,9999,51,2.13,10,10,9999,99999,9,999999999,999,0.999,0.001,99,0.2,0.1,1
2025,12,23,17,60,?9?9?9?9,-11.1,-13.1,84,99960,9999,9999,9999,10,0,10,999999,999999,999999,9999,56,3.13,10,10,9999,99999,9,999999999,999,0.999,0.002,99,0.2,0.3,1
2025,12,23,18,60,?9?9?9?9,-10.9,-12.8,86,99850,9999,9999,9999,0,0,0,999999,999999,999999,9999,58,3.23,10,10,9999,99999,9,999999999,999,0.999,0.002,99,0.2,0.3,1
2025,12,23,19,60,?9?9?9?9,-10.8,-12.6,87,99770,9999,9999,9999,0,0,0,999999,999999,999999,9999,57,3.58,10,10,9999,99999,9,999999999,999,0.999,0.001,99,0.2,0.2,1
2025,12,23,20,60,?9?9?9?9,-11.1,-12.9,86,99680,9999,9999,9999,0,0,0,999999,999999,999999,9999,55,3.52,10,10,9999,99999,9,999999999,999,0.999,0.001,99,0.2,0.2,1
2025,12,23,21,60,?9?9?9?9,-10.4,-12.4,86,99560,9999,9999,9999,0,0,0,999999,999999,999999,9999,61,4.12,10,10,9999,99999,9,999999999,999,0.999,0.003,99,0.2,0.4,1
2025,12,23,22,60,?9?9?9?9,-9.9,-11.9,85,99430,9999,9999,9999,0,0,0,999999,999999,999999,9999,66,4.32,10,10,9999,99999,9,999999999,999,0.999,0.003,99,0.2,0.5,1
2025,12,23,23,60,?9?9?9?9,-9.4,-11.4,86,99310,9999,9999,9999,0,0,0,999999,999999,999999,9999,69,4.56,10,10,9999,99999,9,999999999,999,0.999,0.004,99,0.2,0.6,1
2025,12,23,24,60,?9?9?9?9,-9.1,-10.8,88,99210,9999,9999,9999,0,0,0,999999,999999,999999,9999,69,4.87,10,10,9999,99999,9,999999999,999,0.999,0.006,99,0.2,0.9,1
2025,12,24,1,60,?9?9?9?9,-8.8,-10.3,89,99100,9999,9999,9999,0,0,0,999999,999999,999999,9999,67,5.02,10,10,9999,99999,9,999999999,999,0.999,0.006,99,0.2,0.8,1
2025,12,24,2,60,?9?9?9?9,-8.9,-10.5,88,99090,9999,9999,9999,0,0,0,999999,999999,999999,9999,62,4.88,10,10,9999,99999,9,999999999,999,0.999,0.006,99,0.2,0.8,1
2025,12,24,3,60,?9?9?9?9,-8.4,-10.2,87,99130,9999,9999,9999,0,0,0,999999,999999,999999,9999,64,5.5,10,10,9999,99999,9,999999999,999,0.999,0.006,99,0.2,0.8,1
2025,12,24,4,60,?9?9?9?9,-8.1,-10.1,86,99190,9999,9999,9999,0,0,0,999999,999999,999999,9999,61,5.44,10,10,9999,99999,9,999999999,999,0.999,0.004,99,0.2,0.6,1
2025,12,24,5,60,?9?9?9?9,-8.1,-10.1,85,99300,9999,9999,9999,0,0,0,999999,999999,999999,9999,54,5.4,10,10,9999,99999,9,999999999,999,0.999,0.003,99,0.2,0.4,1
2025,12,24,6,60,?9?9?9?9,-8.1,-10.4,84,99450,9999,9999,9999,0,0,0,999999,999999,999999,9999,54,5.19,10,10,9999,99999,9,999999999,999,0.999,0.002,99,0.2,0.3,1
2025,12,24,7,60,?9?9?9?9,-8.2,-10.8,82,99630,9999,9999,9999,0,0,0,999999,999999,999999,9999,48,4.57,10,10,9999,99999,9,999999999,999,0.999,0.001,99,0.2,0.1,1
2025,12,24,8,60,?9?9?9?9,-8.5,-10.9,82,99890,9999,9999,9999,0,0,0,999999,999999,999999,9999,19,3.81,10,10,9999,99999,9,999999999,999,0.999,0.0,99,0.2,0.0,0
2025,12,24,9,60,?9?9?9?9,-8.1,-10.9,81,100050,9999,9999,9999,2,0,2,999999,999999,999999,9999,21,3.28,10,10,9999,99999,9,999999999,999,0.999,0.0,99,0.2,0.0,0
2025,12,24,10,60,?9?9?9?9,-7.6,-10.8,78,100180,9999,9999,9999,53,61,46,999999,999999,999999,9999,28,2.95,9,9,9999,99999,9,999999999,999,0.999,0.0,99,0.2,0.0,0
2025,12,24,11,60,?9?9?9?9,-6.5,-10.8,72,100280,9999,9999,9999,177,372,93,999999,999999,999999,9999,43,3.01,8,8,9999,99999,9,999999999,999,0.999,0.0,99,0.2,0.0,0
2025,12,24,12,60,?9?9?9?9,-5.7,-10.6,68,100360,9999,9999,9999,270,583,94,999999,999999,999999,9999,30,1.68,10,10,9999,99999,9,999999999,999,0.999,0.0,99,0.2,0.0,0
2025,12,24,13,60,?9?9?9?9,-4.8,-9.9,68,100350,9999,9999,9999,286,452,133,999999,999999,999999,9999,360,1.35,10,10,9999,99999,9,999999999,999,0.999,0.0,99,0.2,0.0,0
2025,12,24,14,60,?9?9?9?9,-3.5,-8.9,66,100340,9999,9999,9999,254,283,160,999999,999999,999999,9999,344,1.3,9,9,9999,99999,9,999999999,999,0.999,0.0,99,0.2,0.0,0
2025,12,24,15,60,?9?9?9?9,-3.3,-8.9,65,100360,9999,9999,9999,223,382,115,999999,999999,999999,9999,339,0.43,7,7,9999,99999,9,999999999,999,0.999,0.0,99,0.2,0.0,0
2025,12,24,16,60,?9?9?9?9,-4.0,-9.4,66,100450,9999,9999,9999,139,276,85,999999,999999,999999,9999,236,0.36,10,10,9999,99999,9,999999999,999,0.999,0.0,99,0.2,0.0,0
2025,12,24,17,60,?9?9?9?9,-5.9,-9.2,78,100510,9999,9999,9999,38,93,30,999999,999999,999999,9999,191,1.63,10,10,9999,99999,9,999999999,999,0.999,0.0,99,0.2,0.0,0
2025,12,24,18,60,?9?9?9?9,-6.7,-9.2,82,100520,9999,9999,9999,0,0,0,999999,999999,999999,9999,193,2.87,10,10,9999,99999,9,999999999,999,0.999,0.0,99,0.2,0.0,0
2025,12,24,19,60,?9?9?9?9,-7.5,-9.6,85,100500,9999,9999,9999,0,0,0,999999,999999,999999,9999,208,2.37,10,10,9999,99999,9,999999999,999,0.999,0.0,99,0.2,0.0,0
2025,12,24,20,60,?9?9?9?9,-6.8,-8.9,85,100540,9999,9999,9999,0,0,0,999999,999999,999999,9999,227,2.69,10,10,9999,99999,9,999999999,999,0.999,0.0,99,0.2,0.0,0
2025,12,24,21,60,?9?9?9?9,-6.8,-8.6,87,100390,9999,9999,9999,0,0,0,999999,999999,999999,9999,190,1.73,10,10,9999,99999,9,999999999,999,0.999,0.0,99,0.2,0.0,0
2025,12,24,22,60,?9?9?9?9,-7.7,-9.0,90,100290,9999,9999,9999,0,0,0,999999,999999,999999,9999,194,2.43,10,10,9999,99999,9,999999999,999,0.999,0.0,99,0.2,0.0,0
2025,12,24,23,60,?9?9?9?9,-8.1,-9.2,91,100160,9999,9999,9999,0,0,0,999999,999999,999999,9999,205,2.37,10,10,9999,99999,9,999999999,999,0.999,0.001,99,0.2,0.1,1
2025,12,24,24,60,?9?9?9?9,-8.1,-9.4,90,100050,9999,9999,9999,0,0,0,999999,999999,999999,9999,213,2.63,10,10,9999,99999,9,999999999,999,0.999,0.001,99,0.2,0.2,1
2025,12,25,1,60,?9?9?9?9,-7.8,-9.2,89,99950,9999,9999,9999,0,0,0,999999,999999,999999,9999,210,3.07,10,10,9999,99999,9,999999999,999,0.999,0.001,99,0.2,0.2,1
2025,12,25,2,60,?9?9?9?9,-7.6,-8.8,91,99810,9999,9999,9999,0,0,0,999999,999999,999999,9999,209,3.83,10,10,9999,99999,9,999999999,999,0.999,0.003,99,0.2,0.4,1
2025,12,25,3,60,?9?9?9?9,-7.4,-8.8,90,99740,9999,9999,9999,0,0,0,999999,999999,999999,9999,208,4.07,10,10,9999,99999,9,999999999,999,0.999,0.005,99,0.2,0.7,1
2025,12,25,4,60,?9?9?9?9,-7.5,-9.0,89,99630,9999,9999,9999,0,0,0,999999,999999,999999,9999,213,3.8,10,10,9999,99999,9,999999999,999,0.999,0.006,99,0.2,0.9,1
2025,12,25,5,60,?9?9?9?9,-7.6,-9.2,88,99490,9999,9999,9999,0,0,0,999999,999999,999999,9999,215,3.52,10,10,9999,99999,9,999999999,999,0.999,0.007,99,0.2,1.0,1
2025,12,25,6,60,?9?9?9?9,-7.7,-9.2,89,99340,9999,9999,9999,0,0,0,999999,999999,999999,9999,221,2.91,10,10,9999,99999,9,999999999,999,0.999,0.003,99,0.2,0.5,1
2025,12,25,7,60,?9?9?9?9,-7.7,-9.2,89,99300,9999,9999,9999,0,0,0,999999,999999,999999,9999,234,2.11,10,10,9999,99999,9,999999999,999,0.999,0.001,99,0.2,0.1,1
2025,12,25,8,60,?9?9?9?9,-7.6,-9.1,89,99250,9999,9999,9999,0,0,0,999999,999999,999999,9999,270,2.0,9,9,9999,99999,9,999999999,999,0.999,0.001,99,0.2,0.1,1
2025,12,25,9,60,?9?9?9?9,-6.8,-10.0,78,99310,9999,9999,9999,3,0,3,999999,999999,999999,9999,320,3.66,10,10,9999,99999,9,999999999,999,0.999,0.0,99,0.2,0.0,0
2025,12,25,10,60,?9?9?9?9,-6.5,-11.1,70,99380,9999,9999,9999,58,79,49,999999,999999,999999,9999,337,4.55,10,10,9999,99999,9,999999999,999,0.999,0.0,99,0.2,0.0,0
2025,12,25,11,60,?9?9?9?9,-7.3,-13.1,63,99430,9999,9999,9999,118,36,110,999999,999999,999999,9999,342,5.88,10,10,9999,99999,9,999999999,999,0.999,0.0,99,0.2,0.0,0
2025,12,25,12,60,?9?9?9?9,-8.3,-14.8,59,99500,9999,9999,9999,166,30,157,999999,999999,999999,9999,339,6.36,10,10,9999,99999,9,999999999,999,0.999,0.0,99,0.2,0.0,0
2025,12,25,13,60,?9?9?9?9,-9.1,-16.0,57,99520,9999,9999,9999,225,142,177,999999,999999,999999,9999,339,6.49,10,10,9999,99999,9,999999999,999,0.999,0.0,99,0.2,0.0,0
2025,12,25,14,60,?9?9?9?9,-9.4,-16.4,57,99640,9999,9999,9999,226,138,180,999999,999999,999999,9999,340,6.77,10,10,9999,99999,9,999999999,999,0.999,0.0,99,0.2,0.0,0
2025,12,25,15,60,?9?9?9?9,-9.9,-17.2,55,99790,9999,9999,9999,196,186,143,999999,999999,999999,9999,337,6.65,10,10,9999,99999,9,999999999,999,0.999,0.0,99,0.2,0.0,0
2025,12,25,16,60,?9?9?9?9,-10.9,-17.9,56,99940,9999,9999,9999,140,224,96,999999,999999,999999,9999,334,6.06,5,5,9999,99999,9,999999999,999,0.999,0.0,99,0.2,0.0,0
2025,12,25,17,60,?9?9?9?9,-12.2,-18.4,60,100080,9999,9999,9999,51,276,27,999999,999999,999999,9999,332,5.95,2,2,9999,99999,9,999999999,999,0.999,0.0,99,0.2,0.0,0
2025,12,25,18,60,?9?9?9?9,-13.6,-19.4,62,100170,9999,9999,9999,0,0,0,999999,999999,999999,9999,337,6.52,0,0,9999,99999,9,999999999,999,0.999,0.0,99,0.2,0.0,0
2025,12,25,19,60,?9?9?9?9,-14.6,-20.0,63,100230,9999,9999,9999,0,0,0,999999,999999,999999,9999,342,6.51,0,0,9999,99999,9,999999999,999,0.999,0.0,99,0.2,0.0,0
2025,12,25,20,60,?9?9?9?9,-14.9,-19.8,66,100400,9999,9999,9999,0,0,0,999999,999999,999999,9999,337,5.38,0,0,9999,99999,9,999999999,999,0.999,0.0,99,0.2,0.0,0
2025,12,25,21,60,?9?9?9?9,-15.5,-20.4,66,100420,9999,9999,9999,0,0,0,999999,999999,999999,9999,340,5.27,0,0,9999,99999,9,999999999,999,0.999,0.0,99,0.2,0.0,0
2025,12,25,22,60,?9?9?9?9,-16.3,-21.1,66,100500,9999,9999,9999,0,0,0,999999,999999,999999,9999,340,5.31,0,0,9999,99999,9,999999999,999,0.999,0.0,99,0.2,0.0,0
2025,12,25,23,60,?9?9?9?9,-17.0,-21.8,67,100550,9999,9999,9999,0,0,0,999999,999999,999999,9999,337,4.95,0,0,9999,99999,9,999999999,999,0.999,0.0,99,0.2,0.0,0
2025,12,25,24,60,?9?9?9?9,-17.5,-22.2,67,100580,9999,9999,9999,0,0,0,999999,999999,999999,9999,339,4.94,0,0,9999,99999,9,999999999,999,0.999,0.0,99,0.2,0.0,0
2025,12,26,1,60,?9?9?9?9,-18.0,-22.5,68,100620,9999,9999,9999,0,0,0,999999,999999,999999,9999,340,4.68,0,0,9999,99999,9,999999999,999,0.999,0.0,99,0.2,0.0,0
2025,12,26,2,60,?9?9?9?9,-18.4,-22.5,70,100670,9999,9999,9999,0,0,0,999999,999999,999999,9999,342,4.52,0,0,9999,99999,9,999999999,999,0.999,0.0,99,0.2,0.0,0
2025,12,26,3,60,?9?9?9?9,-18.5,-22.7,70,100770,9999,9999,9999,0,0,0,999999,999999,999999,9999,337,4.68,0,0,9999,99999,9,999999999,999,0.999,0.0,99,0.2,0.0,0
2025,12,26,4,60,?9?9?9?9,-19.0,-23.0,70,100800,9999,9999,9999,0,0,0,999999,999999,999999,9999,335,5.28,0,0,9999,99999,9,999999999,999,0.999,0.0,99,0.2,0.0,0
2025,12,26,5,60,?9?9?9?9,-19.2,-23.3,70,100810,9999,9999,9999,0,0,0,999999,999999,999999,9999,341,6.2,0,0,9999,99999,9,999999999,999,0.999,0.0,99,0.2,0.0,0
2025,12,26,6,60,?9?9?9?9,-19.5,-23.6,70,100700,9999,9999,9999,0,0,0,999999,999999,999999,9999,344,6.87,4,4,9999,99999,9,999999999,999,0.999,0.0,99,0.2,0.0,0
2025,12,26,7,60,?9?9?9?9,-19.8,-23.9,70,100620,9999,9999,9999,0,0,0,999999,999999,999999,9999,348,6.81,4,4,9999,99999,9,999999999,999,0.999,0.0,99,0.2,0.0,0
2025,12,26,8,60,?9?9?9?9,-20.0,-23.6,73,100700,9999,9999,9999,0,0,0,999999,999999,999999,9999,350,5.13,2,2,9999,99999,9,999999999,999,0.999,0.0,99,0.2,0.0,0
2025,12,26,9,60,?9?9?9?9,-20.4,-24.0,73,100760,9999,9999,9999,5,52,3,999999,999999,999999,9999,4,3.26,5,5,9999,99999,9,999999999,999,0.999,0.0,99,0.2,0.0,0
2025,12,26,10,60,?9?9?9?9,-19.7,-24.0,68,100840,9999,9999,9999,93,522,34,999999,999999,999999,9999,7,1.71,5,5,9999,99999,9,999999999,999,0.999,0.0,99,0.2,0.0,0
2025,12,26,11,60,?9?9?9?9,-18.7,-24.4,61,100840,9999,9999,9999,218,716,57,999999,999999,999999,9999,6,2.56,1,1,9999,99999,9,999999999,999,0.999,0.0,99,0.2,0.0,0
2025,12,26,12,60,?9?9?9?9,-17.6,-23.9,58,100710,9999,9999,9999,311,804,68,999999,999999,999999,9999,354,3.62,6,6,9999,99999,9,999999999,999,0.999,0.0,99,0.2,0.0,0
2025,12,26,13,60,?9?9?9?9,-16.2,-23.2,55,100560,9999,9999,9999,354,817,77,999999,999999,999999,9999,357,3.15,10,10,9999,99999,9,999999999,999,0.999,0.0,99,0.2,0.0,0
2025,12,26,14,60,?9?9?9?9,-14.9,-21.9,55,100460,9999,9999,9999,263,243,182,999999,999999,999999,9999,31,1.64,10,10,9999,99999,9,999999999,999,0.999,0.0,99,0.2,0.0,0
2025,12,26,15,60,?9?9?9?9,-14.2,-21.5,54,100410,9999,9999,9999,174,53,159,999999,999999,999999,9999,27,1.12,10,10,9999,99999,9,999999999,999,0.999,0.0,99,0.2,0.0,0
2025,12,26,16,60,?9?9?9?9,-14.2,-21.0,56,100340,9999,9999,9999,102,30,96,999999,999999,999999,9999,65,1.05,10,10,9999,99999,9,999999999,999,0.999,0.0,99,0.2,0.0,0
2025,12,26,17,60,?9?9?9?9,-15.1,-19.6,68,100260,9999,9999,9999,35,0,35,999999,999999,999999,9999,87,1.0,10,10,9999,99999,9,999999999,999,0.999,0.0,99,0.2,0.0,0
2025,12,26,18,60,?9?9?9?9,-15.9,-19.2,75,100220,9999,9999,9999,0,0,0,999999,999999,999999,9999,96,0.96,10,10,9999,99999,9,999999999,999,0.999,0.0,99,0.2,0.0,0
2025,12,26,19,60,?9?9?9?9,-16.1,-19.1,78,100180,9999,9999,9999,0,0,0,999999,999999,999999,9999,71,1.38,10,10,9999,99999,9,999999999,999,0.999,0.0,99,0.2,0.0,0
2025,12,26,20,60,?9?9?9?9,-17.9,-20.7,78,100140,9999,9999,9999,0,0,0,999999,999999,999999,9999,57,1.84,10,10,9999,99999,9,999999999,999,0.999,0.0,99,0.2,0.0,0
2025,12,26,21,60,?9?9?9?9,-16.7,-19.4,80,100180,9999,9999,9999,0,0,0,999999,999999,999999,9999,28,2.1,10,10,9999,99999,9,999999999,999,0.999,0.0,99,0.2,0.0,0
2025,12,26,22,60,?9?9?9?9,-16.4,-19.7,75,100230,9999,9999,9999,0,0,0,999999,999999,999999,9999,28,2.37,10,10,9999,99999,9,999999999,999,0.999,0.0,99,0.2,0.0,0
2025,12,26,23,60,?9?9?9?9,-15.8,-19.4,74,100260,9999,9999,9999,0,0,0,999999,999999,999999,9999,26,2.28,10,10,9999,99999,9,999999999,999,0.999,0.0,99,0.2,0.0,0
2025,12,26,24,60,?9?9?9?9,-15.5,-18.9,75,100240,9999,9999,9999,0,0,0,999999,999999,999999,9999,26,2.77,10,10,9999,99999,9,999999999,999,0.999,0.0,99,0.2,0.0,0
2025,12,27,1,60,?9?9?9?9,-15.4,-18.9,75,100190,9999,9999,9999,0,0,0,999999,999999,999999,9999,34,3.45,10,10,9999,99999,9,999999999,999,0.999,0.0,99,0.2,0.0,0
2025,12,27,2,60,?9?9?9?9,-14.6,-19.0,69,100130,9999,9999,9999,0,0,0,999999,999999,999999,9999,50,3.98,10,10,9999,99999,9,999999999,999,0.999,0.0,99,0.2,0.0,0
2025,12,27,3,60,?9?9?9?9,-14.4,-18.1,73,100190,9999,9999,9999,0,0,0,999999,999999,999999,9999,52,3.53,10,10,9999,99999,9,999999999,999,0.999,0.0,99,0.2,0.0,0
2025,12,27,4,60,?9?9?9?9,-14.2,-17.7,75,100230,9999,9999,9999,0,0,0,999999,999999,999999,9999,59,3.46,10,10,9999,99999,9,999999999,999,0.999,0.0,99,0.2,0.0,0
2025,12,27,5,60,?9?9?9?9,-14.2,-17.5,76,100210,9999,9999,9999,0,0,0,999999,999999,999999,9999,62,3.69,10,10,9999,99999,9,999999999,999,0.999,0.0,99,0.2,0.0,0
2025,12,27,6,60,?9?9?9?9,-14.1,-17.2,77,100240,9999,9999,9999,0,0,0,999999,999999,999999,9999,60,3.45,10,10,9999,99999,9,999999999,999,0.999,0.001,99,0.2,0.1,1
2025,12,27,7,60,?9?9?9?9,-14.1,-17.1,78,100320,9999,9999,9999,0,0,0,999999,999999,999999,9999,51,3.23,9,9,9999,99999,9,999999999,999,0.999,0.0,99,0.2,0.0,0
2025,12,27,8,60,?9?9?9?9,-14.1,-16.8,81,100400,9999,9999,9999,0,0,0,999999,999999,999999,9999,41,3.19,10,10,9999,99999,9,999999999,999,0.999,0.0,99,0.2,0.0,0
2025,12,27,9,60,?9?9?9?9,-14.4,-16.9,82,100470,9999,9999,9999,4,0,4,999999,999999,999999,9999,36,2.65,0,0,9999,99999,9,999999999,999,0.999,0.0,99,0.2,0.0,0
2025,12,27,10,60,?9?9?9?9,-14.1,-17.0,78,100530,9999,9999,9999,86,471,33,999999,999999,999999,9999,28,1.92,0,0,9999,99999,9,999999999,999,0.999,0.0,99,0.2,0.0,0
2025,12,27,11,60,?9?9?9?9,-12.6,-16.9,70,100550,9999,9999,9999,206,667,56,999999,999999,999999,9999,41,1.84,0,0,9999,99999,9,999999999,999,0.999,0.0,99,0.2,0.0,0
2025,12,27,12,60,?9?9?9?9,-11.5,-16.8,65,100500,9999,9999,9999,299,764,68,999999,999999,999999,9999,46,1.38,0,0,9999,99999,9,999999999,999,0.999,0.0,99,0.2,0.0,0
2025,12,27,13,60,?9?9?9?9,-10.6,-17.0,59,100430,9999,9999,9999,345,804,72,999999,999999,999999,9999,38,0.82,0,0,9999,99999,9,999999999,999,0.999,0.0,99,0.2,0.0,0
2025,12,27,14,60,?9?9?9?9,-9.1,-16.5,55,100390,9999,9999,9999,339,802,71,999999,999999,999999,9999,14,0.41,0,0,9999,99999,9,999999999,999,0.999,0.0,99,0.2,0.0,0
2025,12,27,15,60,?9?9?9?9,-8.4,-17.2,49,100420,9999,9999,9999,281,754,65,999999,999999,999999,9999,326,0.36,0,0,9999,99999,9,999999999,999,0.999,0.0,99,0.2,0.0,0
2025,12,27,16,60,?9?9?9?9,-8.6,-17.7,48,100440,9999,9999,9999,179,646,50,999999,999999,999999,9999,291,0.43,0,0,9999,99999,9,999999999,999,0.999,0.0,99,0.2,0.0,0
2025,12,27,17,60,?9?9?9?9,-10.9,-17.7,58,100420,9999,9999,9999,58,395,23,999999,999999,999999,9999,258,0.72,0,0,9999,99999,9,999999999,999,0.999,0.0,99,0.2,0.0,0
2025,12,27,18,60,?9?9?9?9,-13.2,-18.4,66,100430,9999,9999,9999,0,0,0,999999,999999,999999,9999,300,0.99,0,0,9999,99999,9,999999999,999,0.999,0.0,99,0.2,0.0,0
2025,12,27,19,60,?9?9?9?9,-14.7,-18.9,71,100450,9999,9999,9999,0,0,0,999999,999999,999999,9999,327,1.84,0,0,9999,99999,9,999999999,999,0.999,0.0,99,0.2,0.0,0
2025,12,27,20,60,?9?9?9?9,-15.8,-19.6,72,100470,9999,9999,9999,0,0,0,999999,999999,999999,9999,335,1.99,0,0,9999,99999,9,999999999,999,0.999,0.0,99,0.2,0.0,0
2025,12,27,21,60,?9?9?9?9,-15.6,-19.6,71,100470,9999,9999,9999,0,0,0,999999,999999,999999,9999,334,2.06,0,0,9999,99999,9,999999999,999,0.999,0.0,99,0.2,0.0,0
2025,12,27,22,60,?9?9?9?9,-15.9,-20.0,70,100470,9999,9999,9999,0,0,0,999999,999999,999999,9999,318,2.16,0,0,9999,99999,9,999999999,999,0.999,0.0,99,0.2,0.0,0
2025,12,27,23,60,?9?9?9?9,-15.6,-19.8,70,100450,9999,9999,9999,0,0,0,999999,999999,999999,9999,309,2.38,0,0,9999,99999,9,999999999,999,0.999,0.0,99,0.2,0.0,0
2025,12,27,24,60,?9?9?9?9,-15.4,-19.5,70,100430,9999,9999,9999,0,0,0,999999,999999,999999,9999,317,2.72,0,0,9999,99999,9,999999999,999,0.999,0.0,99,0.2,0.0,0
2025,12,28,1,60,?9?9?9?9,-15.5,-19.9,69,100360,9999,9999,9999,0,0,0,999999,999999,999999,9999,332,2.15,0,0,9999,99999,9,999999999,999,0.999,0.0,99,0.2,0.0,0
2025,12,28,2,60,?9?9?9?9,-16.1,-20.6,68,100370,9999,9999,9999,0,0,0,999999,999999,999999,9999,331,2.46,0,0,9999,99999,9,999999999,999,0.999,0.0,99,0.2,0.0,0
2025,12,28,3,60,?9?9?9?9,-16.4,-20.9,68,100400,9999,9999,9999,0,0,0,999999,999999,999999,9999,333,2.35,0,0,9999,99999,9,999999999,999,0.999,0.0,99,0.2,0.0,0
2025,12,28,4,60,?9?9?9?9,-16.5,-21.0,68,100430,9999,9999,9999,0,0,0,999999,999999,999999,9999,324,2.58,0,0,9999,99999,9,999999999,999,0.999,0.0,99,0.2,0.0,0
2025,12,28,5,60,?9?9?9?9,-16.4,-20.8,69,100410,9999,9999,9999,0,0,0,999999,999999,999999,9999,322,2.46,1,1,9999,99999,9,999999999,999,0.999,0.0,99,0.2,0.0,0
2025,12,28,6,60,?9?9?9?9,-16.9,-21.2,69,100370,9999,9999,9999,0,0,0,999999,999999,999999,9999,316,1.94,2,2,9999,99999,9,999999999,999,0.999,0.0,99,0.2,0.0,0
2025,12,28,7,60,?9?9?9?9,-17.4,-21.6,69,100350,9999,9999,9999,0,0,0,999999,999999,999999,9999,314,1.8,2,2,9999,99999,9,999999999,999,0.999,0.0,99,0.2,0.0,0
2025,12,28,8,60,?9?9?9?9,-16.6,-20.4,72,100300,9999,9999,9999,0,0,0,999999,999999,999999,9999,325,2.08,4,4,9999,99999,9,999999999,999,0.999,0.0,99,0.2,0.0,0
2025,12,28,9,60,?9?9?9?9,-18.0,-21.8,72,100280,9999,9999,9999,4,53,2,999999,999999,999999,9999,322,1.71,2,2,9999,99999,9,999999999,999,0.999,0.0,99,0.2,0.0,0
2025,12,28,10,60,?9?9?9?9,-15.9,-20.9,66,100250,9999,9999,9999,86,481,32,999999,999999,999999,9999,322,1.46,3,3,9999,99999,9,999999999,999,0.999,0.0,99,0.2,0.0,0
2025,12,28,11,60,?9?9?9?9,-13.4,-19.9,58,100200,9999,9999,9999,207,685,53,999999,999999,999999,9999,297,0.67,4,4,9999,99999,9,999999999,999,0.999,0.0,99,0.2,0.0,0
2025,12,28,12,60,?9?9?9?9,-10.9,-19.0,51,100110,9999,9999,9999,299,760,69,999999,999999,999999,9999,207,0.11,9,9,9999,99999,9,999999999,999,0.999,0.0,99,0.2,0.0,0
2025,12,28,13,60,?9?9?9?9,-9.2,-18.0,49,99970,9999,9999,9999,339,755,82,999999,999999,999999,9999,207,0.45,9,9,9999,99999,9,999999999,999,0.999,0.0,99,0.2,0.0,0
2025,12,28,14,60,?9?9?9?9,-6.8,-16.1,48,99860,9999,9999,9999,328,713,89,999999,999999,999999,9999,187,0.4,9,9,9999,99999,9,999999999,999,0.999,0.0,99,0.2,0.0,0
2025,12,28,15,60,?9?9?9?9,-7.1,-15.8,50,99840,9999,9999,9999,277,726,68,999999,999999,999999,9999,185,1.15,10,10,9999,99999,9,999999999,999,0.999,0.0,99,0.2,0.0,0
2025,12,28,16,60,?9?9?9?9,-8.6,-14.1,64,99740,9999,9999,9999,126,114,103,999999,999999,999999,9999,183,1.65,10,10,9999,99999,9,999999999,999,0.999,0.0,99,0.2,0.0,0
2025,12,28,17,60,?9?9?9?9,-11.1,-14.6,76,99620,9999,9999,9999,47,145,34,999999,999999,999999,9999,208,0.96,10,10,9999,99999,9,999999999,999,0.999,0.0,99,0.2,0.0,0
2025,12,28,18,60,?9?9?9?9,-12.4,-15.4,78,99620,9999,9999,9999,0,0,0,999999,999999,999999,9999,302,0.76,10,10,9999,99999,9,999999999,999,0.999,0.0,99,0.2,0.0,0
2025,12,28,19,60,?9?9?9?9,-13.0,-15.8,79,99510,9999,9999,9999,0,0,0,999999,999999,999999,9999,349,1.27,10,10,9999,99999,9,999999999,999,0.999,0.0,99,0.2,0.0,0
2025,12,28,20,60,?9?9?9?9,-10.3,-14.1,74,99410,9999,9999,9999,0,0,0,999999,999999,999999,9999,26,1.95,10,10,9999,99999,9,999999999,999,0.999,0.0,99,0.2,0.0,0
2025,12,28,21,60,?9?9?9?9,-9.8,-13.6,73,99280,9999,9999,9999,0,0,0,999999,999999,999999,9999,43,2.48,10,10,9999,99999,9,999999999,999,0.999,0.0,99,0.2,0.0,0
2025,12,28,22,60,?9?9?9?9,-10.7,-13.9,77,99190,9999,9999,9999,0,0,0,999999,999999,999999,9999,40,2.09,10,10,9999,99999,9,999999999,999,0.999,0.0,99,0.2,0.0,0
2025,12,28,23,60,?9?9?9?9,-11.1,-14.2,77,99060,9999,9999,9999,0,0,0,999999,999999,999999,9999,35,2.19,10,10,9999,99999,9,999999999,999,0.999,0.0,99,0.2,0.0,0
2025,12,28,24,60,?9?9?9?9,-10.9,-14.4,75,98900,9999,9999,9999,0,0,0,999999,999999,999999,9999,38,3.06,10,10,9999,99999,9,999999999,999,0.999,0.0,99,0.2,0.0,0
2025,12,29,1,60,?9?9?9?9,-10.3,-14.8,70,98730,9999,9999,9999,0,0,0,999999,999999,999999,9999,46,3.39,10,10,9999,99999,9,999999999,999,0.999,0.0,99,0.2,0.0,0
2025,12,29,2,60,?9?9?9?9,-9.4,-14.4,67,98550,9999,9999,9999,0,0,0,999999,999999,999999,9999,58,4.11,10,10,9999,99999,9,999999999,999,0.999,0.0,99,0.2,0.0,0
2025,12,29,3,60,?9?9?9?9,-9.1,-14.2,66,98400,9999,9999,9999,0,0,0,999999,999999,999999,9999,66,4.27,10,10,9999,99999,9,999999999,999,0.999,0.0,99,0.2,0.0,0
2025,12,29,4,60,?9?9?9?9,-8.7,-13.3,69,98290,9999,9999,9999,0,0,0,999999,999999,999999,9999,63,3.8,10,10,9999,99999,9,999999999,999,0.999,0.0,99,0.2,0.0,0
2025,12,29,5,60,?9?9?9?9,-7.5,-11.7,72,98040,9999,9999,9999,0,0,0,999999,999999,999999,9999,69,4.7,10,10,9999,99999,9,999999999,999,0.999,0.0,99,0.2,0.1,1
2025,12,29,6,60,?9?9?9?9,-6.5,-10.2,75,98040,9999,9999,9999,0,0,0,999999,999999,999999,9999,76,4.12,10,10,9999,99999,9,999999999,999,0.999,0.001,99,0.2,0.2,1
2025,12,29,7,60,?9?9?9?9,-6.2,-9.4,78,97810,9999,9999,9999,0,0,0,999999,999999,999999,9999,78,5.16,10,10,9999,99999,9,999999999,999,0.999,0.001,99,0.2,0.1,1
2025,12,29,8,60,?9?9?9?9,-5.8,-7.8,85,97660,9999,9999,9999,0,0,0,999999,999999,999999,9999,70,4.21,10,10,9999,99999,9,999999999,999,0.999,0.001,99,0.2,0.6,1
2025,12,29,9,60,?9?9?9?9,-4.8,-6.8,86,97540,9999,9999,9999,2,0,2,999999,999999,999999,9999,79,5.35,10,10,9999,99999,9,999999999,999,0.999,0.0,99,0.2,0.1,1
2025,12,29,10,60,?9?9?9?9,-3.8,-5.8,86,97400,9999,9999,9999,15,0,15,999999,999999,999999,9999,89,5.25,10,10,9999,99999,9,999999999,999,0.999,0.0,99,0.2,0.1,1
2025,12,29,11,60,?9?9?9?9,-3.0,-4.8,87,97310,9999,9999,9999,35,0,35,999999,999999,999999,9999,87,5.36,10,10,9999,99999,9,999999999,999,0.999,0.0,99,0.2,0.3,1
2025,12,29,12,60,?9?9?9?9,-2.1,-3.7,89,97170,9999,9999,9999,28,0,28,999999,999999,999999,9999,91,5.35,10,10,9999,99999,9,999999999,999,0.999,0.0,99,0.2,1.7,1
2025,12,29,13,60,?9?9?9?9,-0.9,-2.5,89,96960,9999,9999,9999,47,0,47,999999,999999,999999,9999,92,5.3,10,10,9999,99999,9,999999999,999,0.999,0.0,99,0.2,1.7,1
2025,12,29,14,60,?9?9?9?9,-1.3,-2.5,92,96830,9999,9999,9999,55,0,55,999999,999999,999999,9999,86,4.01,10,10,9999,99999,9,999999999,999,0.999,0.003,99,0.2,0.5,1
2025,12,29,15,60,?9?9?9?9,-0.9,-1.3,97,96750,9999,9999,9999,32,0,32,999999,999999,999999,9999,96,4.42,10,10,9999,99999,9,999999999,999,0.999,0.004,99,0.2,0.6,1
2025,12,29,16,60,?9?9?9?9,0.2,-0.2,97,96690,9999,9999,9999,26,0,26,999999,999999,999999,9999,117,3.47,10,10,9999,99999,9,999999999,999,0.999,0.006,99,0.2,1.0,1
2025,12,29,17,60,?9?9?9?9,1.0,0.6,98,96650,9999,9999,9999,8,0,8,999999,999999,999999,9999,165,3.47,10,10,9999,99999,9,999999999,999,0.999,0.001,99,0.2,0.6,1
2025,12,29,18,60,?9?9?9?9,1.1,0.4,95,96660,9999,9999,9999,0,0,0,999999,999999,999999,9999,186,5.48,10,10,9999,99999,9,999999999,999,0.999,0.0,99,0.2,0.5,1
2025,12,29,19,60,?9?9?9?9,0.7,-0.5,92,96620,9999,9999,9999,0,0,0,999999,999999,999999,9999,205,6.0,10,10,9999,99999,9,999999999,999,0.999,0.001,99,0.2,0.2,1
2025,12,29,20,60,?9?9?9?9,-0.2,-1.5,91,96710,9999,9999,9999,0,0,0,999999,999999,999999,9999,208,5.59,10,10,9999,99999,9,999999999,999,0.999,0.001,99,0.2,0.2,1
2025,12,29,21,60,?9?9?9?9,-0.6,-2.3,89,96720,9999,9999,9999,0,0,0,999999,999999,999999,9999,205,5.48,10,10,9999,99999,9,999999999,999,0.999,0.001,99,0.2,0.1,1
2025,12,29,22,60,?9?9?9?9,-1.2,-2.9,88,96640,9999,9999,9999,0,0,0,999999,999999,999999,9999,219,5.47,10,10,9999,99999,9,999999999,999,0.999,0.0,99,0.2,0.0,0
2025,12,29,23,60,?9?9?9?9,-2.2,-3.8,89,96570,9999,9999,9999,0,0,0,999999,999999,999999,9999,219,4.26,8,8,9999,99999,9,999999999,999,0.999,0.0,99,0.2,0.0,0
2025,12,29,24,60,?9?9?9?9,-3.2,-4.6,90,96520,9999,9999,9999,0,0,0,999999,999999,999999,9999,211,3.25,8,8,9999,99999,9,999999999,999,0.999,0.0,99,0.2,0.0,0
2025,12,30,1,60,?9?9?9?9,-3.7,-5.1,90,96470,9999,9999,9999,0,0,0,999999,999999,999999,9999,209,3.16,9,9,9999,99999,9,999999999,999,0.999,0.0,99,0.2,0.0,0
2025,12,30,2,60,?9?9?9?9,-4.8,-6.6,88,96580,9999,9999,9999,0,0,0,999999,999999,999999,9999,250,3.31,9,9,9999,99999,9,999999999,999,0.999,0.0,99,0.2,0.0,0
2025,12,30,3,60,?9?9?9?9,-5.6,-8.4,81,96680,9999,9999,9999,0,0,0,999999,999999,999999,9999,260,3.66,10,10,9999,99999,9,999999999,999,0.999,0.0,99,0.2,0.0,0
2025,12,30,4,60,?9?9?9?9,-7.0,-11.5,70,96800,9999,9999,9999,0,0,0,999999,999999,999999,9999,266,5.56,10,10,9999,99999,9,999999999,999,0.999,0.0,99,0.2,0.0,0
2025,12,30,5,60,?9?9?9?9,-9.6,-14.8,66,96900,9999,9999,9999,0,0,0,999999,999999,999999,9999,278,6.06,10,10,9999,99999,9,999999999,999,0.999,0.0,99,0.2,0.0,0
2025,12,30,6,60,?9?9?9?9,-11.2,-15.9,69,96960,9999,9999,9999,0,0,0,999999,999999,999999,9999,266,4.56,10,10,9999,99999,9,999999999,999,0.999,0.0,99,0.2,0.0,0
2025,12,30,7,60,?9?9?9?9,-11.8,-16.1,70,96980,9999,9999,9999,0,0,0,999999,999999,999999,9999,259,4.43,10,10,9999,99999,9,999999999,999,0.999,0.0,99,0.2,0.0,0
2025,12,30,8,60,?9?9?9?9,-11.1,-16.0,67,97120,9999,9999,9999,0,0,0,999999,999999,999999,9999,265,5.62,10,10,9999,99999,9,999999999,999,0.999,0.0,99,0.2,0.0,0
2025,12,30,9,60,?9?9?9?9,-12.1,-17.2,66,97180,9999,9999,9999,3,0,3,999999,999999,999999,9999,267,5.81,10,10,9999,99999,9,999999999,999,0.999,0.0,99,0.2,0.0,0
2025,12,30,10,60,?9?9?9?9,-12.6,-18.1,63,97260,9999,9999,9999,59,54,53,999999,999999,999999,9999,268,5.9,10,10,9999,99999,9,999999999,999,0.999,0.0,99,0.2,0.0,0
2025,12,30,11,60,?9?9?9?9,-12.6,-18.8,60,97290,9999,9999,9999,163,240,109,999999,999999,999999,9999,265,5.72,10,10,9999,99999,9,999999999,999,0.999,0.0,99,0.2,0.0,0
2025,12,30,12,60,?9?9?9?9,-12.5,-19.1,58,97270,9999,9999,9999,239,283,153,999999,999999,999999,9999,255,5.8,10,10,9999,99999,9,999999999,999,0.999,0.0,99,0.2,0.0,0
2025,12,30,13,60,?9?9?9?9,-12.6,-19.5,56,97230,9999,9999,9999,290,366,165,999999,999999,999999,9999,255,6.48,10,10,9999,99999,9,999999999,999,0.999,0.0,99,0.2,0.0,0
2025,12,30,14,60,?9?9?9?9,-12.9,-19.5,58,97290,9999,9999,9999,250,169,193,999999,999999,999999,9999,253,6.44,10,10,9999,99999,9,999999999,999,0.999,0.0,99,0.2,0.0,0
2025,12,30,15,60,?9?9?9?9,-13.1,-19.9,57,97320,9999,9999,9999,241,364,135,999999,999999,999999,9999,258,6.3,10,10,9999,99999,9,999999999,999,0.999,0.0,99,0.2,0.0,0
2025,12,30,16,60,?9?9?9?9,-13.4,-20.0,58,97370,9999,9999,9999,137,166,103,999999,999999,999999,9999,258,5.63,10,10,9999,99999,9,999999999,999,0.999,0.0,99,0.2,0.0,0
2025,12,30,17,60,?9?9?9?9,-14.2,-20.2,60,97400,9999,9999,9999,41,33,38,999999,999999,999999,9999,254,5.52,10,10,9999,99999,9,999999999,999,0.999,0.0,99,0.2,0.0,0
2025,12,30,18,60,?9?9?9?9,-14.7,-20.4,62,97440,9999,9999,9999,0,0,0,999999,999999,999999,9999,253,5.54,10,10,9999,99999,9,999999999,999,0.999,0.0,99,0.2,0.0,0
2025,12,30,19,60,?9?9?9?9,-15.4,-21.1,61,97470,9999,9999,9999,0,0,0,999999,999999,999999,9999,257,5.4,10,10,9999,99999,9,999999999,999,0.999,0.0,99,0.2,0.0,0
2025,12,30,20,60,?9?9?9?9,-15.2,-20.7,63,97550,9999,9999,9999,0,0,0,999999,999999,999999,9999,252,5.0,10,10,9999,99999,9,999999999,999,0.999,0.0,99,0.2,0.0,0
2025,12,30,21,60,?9?9?9?9,-16.0,-21.1,65,97580,9999,9999,9999,0,0,0,999999,999999,999999,9999,249,4.76,10,10,9999,99999,9,999999999,999,0.999,0.001,99,0.2,0.0,0
2025,12,30,22,60,?9?9?9?9,-16.3,-21.1,66,97620,9999,9999,9999,0,0,0,999999,999999,999999,9999,245,4.47,10,10,9999,99999,9,999999999,999,0.999,0.001,99,0.2,0.1,1
2025,12,30,23,60,?9?9?9?9,-17.0,-21.9,66,97650,9999,9999,9999,0,0,0,999999,999999,999999,9999,242,4.25,8,8,9999,99999,9,999999999,999,0.999,0.0,99,0.2,0.0,0
2025,12,30,24,60,?9?9?9?9,-18.0,-22.2,69,97650,9999,9999,9999,0,0,0,999999,999999,999999,9999,239,3.54,9,9,9999,99999,9,999999999,999,0.999,0.0,99,0.2,0.0,0
2025,12,31,1,60,?9?9?9?9,-18.5,-22.6,70,97700,9999,9999,9999,0,0,0,999999,999999,999999,9999,236,3.56,9,9,9999,99999,9,999999999,999,0.999,0.0,99,0.2,0.0,0
2025,12,31,2,60,?9?9?9?9,-18.4,-22.2,72,97780,9999,9999,9999,0,0,0,999999,999999,999999,9999,237,3.58,10,10,9999,99999,9,999999999,999,0.999,0.0,99,0.2,0.0,0
2025,12,31,3,60,?9?9?9?9,-18.1,-22.2,70,97830,9999,9999,9999,0,0,0,999999,999999,999999,9999,234,3.47,10,10,9999,99999,9,999999999,999,0.999,0.0,99,0.2,0.0,0
2025,12,31,4,60,?9?9?9?9,-18.0,-22.3,69,97860,9999,9999,9999,0,0,0,999999,999999,999999,9999,234,3.44,10,10,9999,99999,9,999999999,999,0.999,0.001,99,0.2,0.1,1
2025,12,31,5,60,?9?9?9?9,-17.9,-22.4,68,97860,9999,9999,9999,0,0,0,999999,999999,999999,9999,230,3.41,10,10,9999,99999,9,999999999,999,0.999,0.0,99,0.2,0.0,0
2025,12,31,6,60,?9?9?9?9,-17.8,-22.1,69,97890,9999,9999,9999,0,0,0,999999,999999,999999,9999,222,3.5,9,9,9999,99999,9,999999999,999,0.999,0.0,99,0.2,0.0,0
2025,12,31,7,60,?9?9?9?9,-18.2,-22.0,72,97910,9999,9999,9999,0,0,0,999999,999999,999999,9999,216,3.33,10,10,9999,99999,9,999999999,999,0.999,0.0,99,0.2,0.0,0
2025,12,31,8,60,?9?9?9?9,-18.6,-22.0,75,97960,9999,9999,9999,0,0,0,999999,999999,999999,9999,220,3.37,10,10,9999,99999,9,999999999,999,0.999,0.0,99,0.2,0.0,0
2025,12,31,9,60,?9?9?9?9,-18.1,-21.3,76,97980,9999,9999,9999,3,0,3,999999,999999,999999,9999,220,2.87,10,10,9999,99999,9,999999999,999,0.999,0.0,99,0.2,0.0,0
2025,12,31,10,60,?9?9?9?9,-16.9,-20.2,75,98030,9999,9999,9999,50,9,49,999999,999999,999999,9999,218,2.35,10,10,9999,99999,9,999999999,999,0.999,0.001,99,0.2,0.1,1
2025,12,31,11,60,?9?9?9?9,-15.4,-19.4,72,98080,9999,9999,9999,112,27,106,999999,999999,999999,9999,211,2.98,10,10,9999,99999,9,999999999,999,0.999,0.001,99,0.2,0.1,1
2025,12,31,12,60,?9?9?9?9,-14.0,-19.0,66,98060,9999,9999,9999,189,105,157,999999,999999,999999,9999,224,4.7,10,10,9999,99999,9,999999999,999,0.999,0.001,99,0.2,0.1,1
2025,12,31,13,60,?9?9?9?9,-13.1,-19.1,60,98060,9999,9999,9999,208,67,185,999999,999999,999999,9999,237,4.48,10,10,9999,99999,9,999999999,999,0.999,0.001,99,0.2,0.2,1
2025,12,31,14,60,?9?9?9?9,-12.4,-18.1,62,98050,9999,9999,9999,181,21,174,999999,999999,999999,9999,220,4.3,10,10,9999,99999,9,999999999,999,0.999,0.001,99,0.2,0.1,1
2025,12,31,15,60,?9?9?9?9,-11.9,-17.4,64,98080,9999,9999,9999,180,62,162,999999,999999,999999,9999,220,4.47,10,10,9999,99999,9,999999999,999,0.999,0.001,99,0.2,0.1,1
2025,12,31,16,60,?9?9?9?9,-11.3,-17.1,62,98080,9999,9999,9999,129,92,110,999999,999999,999999,9999,227,3.93,10,10,9999,99999,9,999999999,999,0.999,0.0,99,0.2,0.0,0
2025,12,31,17,60,?9?9?9?9,-12.4,-16.9,70,98110,9999,9999,9999,48,108,38,999999,999999,999999,9999,207,1.63,10,10,9999,99999,9,999999999,999,0.999,0.0,99,0.2,0.0,0
2025,12,31,18,60,?9?9?9?9,-14.4,-17.4,78,98170,9999,9999,9999,0,0,0,999999,999999,999999,9999,180,2.0,10,10,9999,99999,9,999999999,999,0.999,0.0,99,0.2,0.0,0
2025,12,31,19,60,?9?9?9?9,-15.1,-17.7,80,98210,9999,9999,9999,0,0,0,999999,999999,999999,9999,200,2.18,6,6,9999,99999,9,999999999,999,0.999,0.0,99,0.2,0.0,0
2025,12,31,20,60,?9?9?9?9,-13.7,-16.0,82,98220,9999,9999,9999,0,0,0,999999,999999,999999,9999,212,1.96,10,10,9999,99999,9,999999999,999,0.999,0.0,99,0.2,0.0,0
2025,12,31,21,60,?9?9?9?9,-15.9,-18.1,84,98190,9999,9999,9999,0,0,0,999999,999999,999999,9999,244,1.72,10,10,9999,99999,9,999999999,999,0.999,0.0,99,0.2,0.0,0
2025,12,31,22,60,?9?9?9?9,-16.2,-18.3,84,98140,9999,9999,9999,0,0,0,999999,999999,999999,9999,281,0.51,10,10,9999,99999,9,999999999,999,0.999,0.0,99,0.2,0.0,0
2025,12,31,23,60,?9?9?9?9,-17.1,-19.1,84,98130,9999,9999,9999,0,0,0,999999,999999,999999,9999,360,0.1,10,10,9999,99999,9,999999999,999,0.999,0.0,99,0.2,0.0,0
2025,12,31,24,60,?9?9?9?9,-18.0,-19.8,86,98130,9999,9999,9999,0,0,0,999999,999999,999999,9999,28,1.48,10,10,9999,99999,9,999999999,999,0.999,0.0,99,0.2,0.0,0
2026,1,1,1,60,?9?9?9?9,-15.7,-17.6,85,98090,9999,9999,9999,0,0,0,999999,999999,999999,9999,27,3.31,10,10,9999,99999,9,999999999,999,0.999,0.001,99,0.2,0.1,1
2026,1,1,2,60,?9?9?9?9,-15.2,-17.0,86,98110,9999,9999,9999,0,0,0,999999,999999,999999,9999,46,2.9,10,10,9999,99999,9,999999999,999,0.999,0.003,99,0.2,0.4,1
2026,1,1,3,60,?9?9?9?9,-14.8,-16.6,85,98080,9999,9999,9999,0,0,0,999999,999999,999999,9999,33,4.09,10,10,9999,99999,9,999999999,999,0.999,0.002,99,0.2,0.3,1
2026,1,1,4,60,?9?9?9?9,-13.9,-16.1,84,98050,9999,9999,9999,0,0,0,999999,999999,999999,9999,31,3.86,10,10,9999,99999,9,999999999,999,0.999,0.002,99,0.2,0.3,1
2026,1,1,5,60,?9?9?9?9,-13.6,-15.9,83,98000,9999,9999,9999,0,0,0,999999,999999,999999,9999,18,4.14,10,10,9999,99999,9,999999999,999,0.999,0.002,99,0.2,0.3,1
2026,1,1,6,60,?9?9?9?9,-13.2,-15.8,81,97940,9999,9999,9999,0,0,0,999999,999999,999999,9999,10,4.51,10,10,9999,99999,9,999999999,999,0.999,0.003,99,0.2,0.4,1
2026,1,1,7,60,?9?9?9?9,-13.1,-15.9,79,97980,9999,9999,9999,0,0,0,999999,999999,999999,9999,350,5.18,10,10,9999,99999,9,999999999,999,0.999,0.003,99,0.2,0.5,1
2026,1,1,8,60,?9?9?9?9,-14.0,-17.6,74,98050,9999,9999,9999,0,0,0,999999,999999,999999,9999,345,6.32,10,10,9999,99999,9,999999999,999,0.999,0.003,99,0.2,0.4,1
2026,1,1,9,60,?9?9?9?9,-14.2,-18.1,72,98110,9999,9999,9999,1,0,1,999999,999999,999999,9999,340,6.06,10,10,9999,99999,9,999999999,999,0.999,0.001,99,0.2,0.2,1
2026,1,1,10,60,?9?9?9?9,-14.1,-18.2,71,98210,9999,9999,9999,34,0,34,999999,999999,999999,9999,332,4.7,10,10,9999,99999,9,999999999,999,0.999,0.001,99,0.2,0.1,1
2026,1,1,11,60,?9?9?9?9,-13.9,-18.9,66,98270,9999,9999,9999,123,137,92,999999,999999,999999,9999,326,4.69,10,10,9999,99999,9,999999999,999,0.999,0.001,99,0.2,0.1,1
2026,1,1,12,60,?9?9?9?9,-13.4,-19.5,60,98310,9999,9999,9999,240,282,154,999999,999999,999999,9999,324,5.15,10,10,9999,99999,9,999999999,999,0.999,0.0,99,0.2,0.0,0
2026,1,1,13,60,?9?9?9?9,-13.1,-20.3,55,98270,9999,9999,9999,294,334,179,999999,999999,999999,9999,325,4.27,8,8,9999,99999,9,999999999,999,0.999,0.0,99,0.2,0.0,0
2026,1,1,14,60,?9?9?9?9,-12.0,-20.2,51,98360,9999,9999,9999,347,752,91,999999,999999,999999,9999,290,3.29,8,8,9999,99999,9,999999999,999,0.999,0.0,99,0.2,0.0,0
2026,1,1,15,60,?9?9?9?9,-11.9,-20.5,49,98400,9999,9999,9999,221,258,145,999999,999999,999999,9999,287,2.67,6,6,9999,99999,9,999999999,999,0.999,0.0,99,0.2,0.0,0
2026,1,1,16,60,?9?9?9?9,-12.6,-20.6,51,98430,9999,9999,9999,193,651,57,999999,999999,999999,9999,267,1.7,0,0,9999,99999,9,999999999,999,0.999,0.0,99,0.2,0.0,0
2026,1,1,17,60,?9?9?9?9,-15.3,-20.8,63,98480,9999,9999,9999,69,459,26,999999,999999,999999,9999,264,1.86,0,0,9999,99999,9,999999999,999,0.999,0.0,99,0.2,0.0,0
2026,1,1,18,60,?9?9?9?9,-18.0,-22.5,68,98500,9999,9999,9999,1,0,1,999999,999999,999999,9999,300,2.2,0,0,9999,99999,9,999999999,999,0.999,0.0,99,0.2,0.0,0
2026,1,1,19,60,?9?9?9?9,-18.1,-22.5,68,98530,9999,9999,9999,0,0,0,999999,999999,999999,9999,292,3.18,2,2,9999,99999,9,999999999,999,0.999,0.0,99,0.2,0.0,0
2026,1,1,20,60,?9?9?9?9,-17.9,-22.2,69,98590,9999,9999,9999,0,0,0,999999,999999,999999,9999,287,4.44,10,10,9999,99999,9,999999999,999,0.999,0.0,99,0.2,0.0,0
2026,1,1,21,60,?9?9?9?9,-17.2,-22.0,67,98630,9999,9999,9999,0,0,0,999999,999999,999999,9999,286,3.23,9,9,9999,99999,9,999999999,999,0.999,0.0,99,0.2,0.0,0
2026,1,1,22,60,?9?9?9?9,-19.0,-22.5,73,98620,9999,9999,9999,0,0,0,999999,999999,999999,9999,275,2.11,0,0,9999,99999,9,999999999,999,0.999,0.0,99,0.2,0.0,0
2026,1,1,23,60,?9?9?9?9,-22.2,-25.4,75,98630,9999,9999,9999,0,0,0,999999,999999,999999,9999,258,1.94,0,0,9999,99999,9,999999999,999,0.999,0.0,99,0.2,0.0,0
2026,1,1,24,60,?9?9?9?9,-24.0,-26.8,78,98610,9999,9999,9999,0,0,0,999999,999999,999999,9999,276,1.86,0,0,9999,99999,9,999999999,999,0.999,0.0,99,0.2,0.0,0
2026,1,2,1,60,?9?9?9?9,-25.0,-27.8,77,98590,9999,9999,9999,0,0,0,999999,999999,999999,9999,288,2.06,0,0,9999,99999,9,999999999,999,0.999,0.0,99,0.2,0.0,0
2026,1,2,2,60,?9?9?9?9,-25.5,-28.9,73,98570,9999,9999,9999,0,0,0,999999,999999,999999,9999,302,2.29,0,0,9999,99999,9,999999999,999,0.999,0.0,99,0.2,0.0,0
2026,1,2,3,60,?9?9?9?9,-25.8,-29.5,71,98580,9999,9999,9999,0,0,0,999999,999999,999999,9999,308,2.35,0,0,9999,99999,9,999999999,999,0.999,0.0,99,0.2,0.0,0
2026,1,2,4,60,?9?9?9?9,-25.7,-29.5,70,98550,9999,9999,9999,0,0,0,999999,999999,999999,9999,305,2.44,0,0,9999,99999,9,999999999,999,0.999,0.0,99,0.2,0.0,0
2026,1,2,5,60,?9?9?9?9,-25.9,-29.8,70,98490,9999,9999,9999,0,0,0,999999,999999,999999,9999,299,2.28,0,0,9999,99999,9,999999999,999,0.999,0.0,99,0.2,0.0,0
2026,1,2,6,60,?9?9?9?9,-26.9,-30.5,71,98440,9999,9999,9999,0,0,0,999999,999999,999999,9999,284,2.22,0,0,9999,99999,9,999999999,999,0.999,0.0,99,0.2,0.0,0
2026,1,2,7,60,?9?9?9?9,-27.0,-30.6,72,98440,9999,9999,9999,0,0,0,999999,999999,999999,9999,284,2.27,0,0,9999,99999,9,999999999,999,0.999,0.0,99,0.2,0.0,0
2026,1,2,8,60,?9?9?9?9,-26.4,-30.2,70,98440,9999,9999,9999,0,0,0,999999,999999,999999,9999,304,2.41,0,0,9999,99999,9,999999999,999,0.999,0.0,99,0.2,0.0,0
2026,1,2,9,60,?9?9?9?9,-27.8,-31.0,74,98430,9999,9999,9999,4,53,2,999999,999999,999999,9999,307,2.25,0,0,9999,99999,9,999999999,999,0.999,0.0,99,0.2,0.0,0
2026,1,2,10,60,?9?9?9?9,-25.1,-29.5,66,98480,9999,9999,9999,95,560,32,999999,999999,999999,9999,317,1.84,0,0,9999,99999,9,999999999,999,0.999,0.0,99,0.2,0.0,0
2026,1,2,11,60,?9?9?9?9,-21.9,-28.9,53,98500,9999,9999,9999,224,746,55,999999,999999,999999,9999,284,0.41,0,0,9999,99999,9,999999999,999,0.999,0.0,99,0.2,0.0,0
2026,1,2,12,60,?9?9?9?9,-19.2,-27.5,48,98470,9999,9999,9999,316,787,75,999999,999999,999999,9999,243,0.22,2,2,9999,99999,9,999999999,999,0.999,0.0,99,0.2,0.0,0
2026,1,2,13,60,?9?9?9?9,-17.2,-26.0,46,98390,9999,9999,9999,357,773,90,999999,999999,999999,9999,195,0.57,5,5,9999,99999,9,999999999,999,0.999,0.0,99,0.2,0.0,0
2026,1,2,14,60,?9?9?9?9,-15.6,-22.6,55,98310,9999,9999,9999,354,789,84,999999,999999,999999,9999,203,2.06,9,9,9999,99999,9,999999999,999,0.999,0.0,99,0.2,0.0,0
2026,1,2,15,60,?9?9?9?9,-15.6,-21.9,59,98290,9999,9999,9999,294,729,78,999999,999999,999999,9999,207,1.79,6,6,9999,99999,9,999999999,999,0.999,0.0,99,0.2,0.0,0
2026,1,2,16,60,?9?9?9?9,-15.9,-21.5,62,98300,9999,9999,9999,186,555,69,999999,999999,999999,9999,208,1.07,4,4,9999,99999,9,999999999,999,0.999,0.0,99,0.2,0.0,0
2026,1,2,17,60,?9?9?9?9,-18.3,-22.1,72,98310,9999,9999,9999,66,358,32,999999,999999,999999,9999,223,1.7,3,3,9999,99999,9,999999999,999,0.999,0.0,99,0.2,0.0,0
2026,1,2,18,60,?9?9?9?9,-19.8,-23.4,73,98350,9999,9999,9999,1,0,1,999999,999999,999999,9999,255,2.07,2,2,9999,99999,9,999999999,999,0.999,0.0,99,0.2,0.0,0
2026,1,2,19,60,?9?9?9?9,-20.5,-23.9,75,98390,9999,9999,9999,0,0,0,999999,999999,999999,9999,279,2.18,2,2,9999,99999,9,999999999,999,0.999,0.0,99,0.2,0.0,0
2026,1,2,20,60,?9?9?9?9,-17.3,-21.1,72,98500,9999,9999,9999,0,0,0,999999,999999,999999,9999,273,3.1,4,4,9999,99999,9,999999999,999,0.999,0.0,99,0.2,0.0,0
2026,1,2,21,60,?9?9?9?9,-18.5,-22.0,74,98550,9999,9999,9999,0,0,0,999999,999999,999999,9999,273,2.75,9,9,9999,99999,9,999999999,999,0.999,0.0,99,0.2,0.0,0
2026,1,2,22,60,?9?9?9?9,-18.5,-22.0,74,98600,9999,9999,9999,0,0,0,999999,999999,999999,9999,273,2.55,8,8,9999,99999,9,999999999,999,0.999,0.0,99,0.2,0.0,0
2026,1,2,23,60,?9?9?9?9,-18.4,-21.8,74,98600,9999,9999,9999,0,0,0,999999,999999,999999,9999,264,2.41,6,6,9999,99999,9,999999999,999,0.999,0.0,99,0.2,0.0,0
2026,1,2,24,60,?9?9?9?9,-19.2,-22.5,75,98610,9999,9999,9999,0,0,0,999999,999999,999999,9999,264,2.36,10,10,9999,99999,9,999999999,999,0.999,0.0,99,0.2,0.0,0
2026,1,3,1,60,?9?9?9?9,-19.1,-22.5,75,98620,9999,9999,9999,0,0,0,999999,999999,999999,9999,263,2.37,2,2,9999,99999,9,999999999,999,0.999,0.0,99,0.2,0.0,0
2026,1,3,2,60,?9?9?9?9,-19.4,-22.9,73,98680,9999,9999,9999,0,0,0,999999,999999,999999,9999,262,2.57,4,4,9999,99999,9,999999999,999,0.999,0.0,99,0.2,0.0,0
2026,1,3,3,60,?9?9?9?9,-19.9,-23.3,74,98750,9999,9999,9999,0,0,0,999999,999999,999999,9999,259,2.6,4,4,9999,99999,9,999999999,999,0.999,0.0,99,0.2,0.0,0
2026,1,3,4,60,?9?9?9?9,-20.7,-24.2,73,98760,9999,9999,9999,0,0,0,999999,999999,999999,9999,260,2.33,9,9,9999,99999,9,999999999,999,0.999,0.0,99,0.2,0.0,0
2026,1,3,5,60,?9?9?9?9,-19.8,-23.5,73,98820,9999,9999,9999,0,0,0,999999,999999,999999,9999,254,2.6,10,10,9999,99999,9,999999999,999,0.999,0.0,99,0.2,0.0,0
2026,1,3,6,60,?9?9?9?9,-19.8,-23.2,74,98830,9999,9999,9999,0,0,0,999999,999999,999999,9999,254,2.29,9,9,9999,99999,9,999999999,999,0.999,0.0,99,0.2,0.0,0
2026,1,3,7,60,?9?9?9?9,-20.6,-23.8,75,98870,9999,9999,9999,0,0,0,999999,999999,999999,9999,261,2.23,6,6,9999,99999,9,999999999,999,0.999,0.0,99,0.2,0.0,0
2026,1,3,8,60,?9?9?9?9,-18.2,-21.5,76,98960,9999,9999,9999,0,0,0,999999,999999,999999,9999,272,2.35,7,7,9999,99999,9,999999999,999,0.999,0.0,99,0.2,0.0,0
2026,1,3,9,60,?9?9?9?9,-19.8,-23.1,75,99000,9999,9999,9999,4,26,3,999999,999999,999999,9999,271,2.25,3,3,9999,99999,9,999999999,999,0.999,0.0,99,0.2,0.0,0
2026,1,3,10,60,?9?9?9?9,-18.8,-23.1,68,99090,9999,9999,9999,88,451,37,999999,999999,999999,9999,267,2.2,2,2,9999,99999,9,999999999,999,0.999,0.0,99,0.2,0.0,0
2026,1,3,11,60,?9?9?9?9,-17.1,-23.6,57,99140,9999,9999,9999,216,686,60,999999,999999,999999,9999,269,2.45,0,0,9999,99999,9,999999999,999,0.999,0.0,99,0.2,0.0,0
2026,1,3,12,60,?9?9?9?9,-16.3,-23.9,52,99140,9999,9999,9999,315,804,68,999999,999999,999999,9999,286,4.21,3,3,9999,99999,9,999999999,999,0.999,0.0,99,0.2,0.0,0
2026,1,3,13,60,?9?9?9?9,-15.9,-24.0,50,99120,9999,9999,9999,362,819,78,999999,999999,999999,9999,289,4.08,3,3,9999,99999,9,999999999,999,0.999,0.0,99,0.2,0.0,0
2026,1,3,14,60,?9?9?9?9,-15.6,-23.9,49,99140,9999,9999,9999,357,817,76,999999,999999,999999,9999,290,3.72,3,3,9999,99999,9,999999999,999,0.999,0.0,99,0.2,0.0,0
2026,1,3,15,60,?9?9?9?9,-15.3,-23.9,48,99220,9999,9999,9999,300,768,71,999999,999999,999999,9999,281,3.67,7,7,9999,99999,9,999999999,999,0.999,0.0,99,0.2,0.0,0
2026,1,3,16,60,?9?9?9?9,-15.4,-23.6,49,99270,9999,9999,9999,197,652,58,999999,999999,999999,9999,277,2.62,10,10,9999,99999,9,999999999,999,0.999,0.0,99,0.2,0.0,0
2026,1,3,17,60,?9?9?9?9,-17.4,-23.1,61,99300,9999,9999,9999,63,270,37,999999,999999,999999,9999,276,1.56,0,0,9999,99999,9,999999999,999,0.999,0.0,99,0.2,0.0,0
2026,1,3,18,60,?9?9?9?9,-19.8,-24.5,66,99360,9999,9999,9999,1,0,1,999999,999999,999999,9999,292,1.77,0,0,9999,99999,9,999999999,999,0.999,0.0,99,0.2,0.0,0
2026,1,3,19,60,?9?9?9?9,-20.8,-25.2,67,99400,9999,9999,9999,0,0,0,999999,999999,999999,9999,293,2.06,0,0,9999,99999,9,999999999,999,0.999,0.0,99,0.2,0.0,0
2026,1,3,20,60,?9?9?9?9,-20.5,-25.5,65,99470,9999,9999,9999,0,0,0,999999,999999,999999,9999,301,2.26,0,0,9999,99999,9,999999999,999,0.999,0.0,99,0.2,0.0,0
2026,1,3,21,60,?9?9?9?9,-21.1,-25.6,67,99510,9999,9999,9999,0,0,0,999999,999999,999999,9999,303,2.09,0,0,9999,99999,9,999999999,999,0.999,0.0,99,0.2,0.0,0
2026,1,3,22,60,?9?9?9?9,-21.8,-26.0,69,99530,9999,9999,9999,0,0,0,999999,999999,999999,9999,299,2.17,2,2,9999,99999,9,999999999,999,0.999,0.0,99,0.2,0.0,0
2026,1,3,23,60,?9?9?9?9,-22.4,-26.3,70,99550,9999,9999,9999,0,0,0,999999,999999,999999,9999,306,2.04,2,2,9999,99999,9,999999999,999,0.999,0.0,99,0.2,0.0,0
2026,1,3,24,60,?9?9?9?9,-22.7,-26.5,71,99560,9999,9999,9999,0,0,0,999999,999999,999999,9999,306,2.11,5,5,9999,99999,9,999999999,999,0.999,0.0,99,0.2,0.0,0
2026,1,4,1,60,?9?9?9?9,-22.8,-26.4,72,99550,9999,9999,9999,0,0,0,999999,999999,999999,9999,312,1.95,9,9,9999,99999,9,999999999,999,0.999,0.0,99,0.2,0.0,0
2026,1,4,2,60,?9?9?9?9,-22.4,-26.0,73,99570,9999,9999,9999,0,0,0,999999,999999,999999,9999,310,1.77,10,10,9999,99999,9,999999999,999,0.999,0.0,99,0.2,0.0,0
2026,1,4,3,60,?9?9?9?9,-21.5,-25.1,73,99620,9999,9999,9999,0,0,0,999999,999999,999999,9999,314,1.94,10,10,9999,99999,9,999999999,999,0.999,0.0,99,0.2,0.0,0
2026,1,4,4,60,?9?9?9?9,-21.5,-24.9,74,99650,9999,9999,9999,0,0,0,999999,999999,999999,9999,312,2.37,10,10,9999,99999,9,999999999,999,0.999,0.0,99,0.2,0.0,0
2026,1,4,5,60,?9?9?9?9,-21.1,-24.4,75,99640,9999,9999,9999,0,0,0,999999,999999,999999,9999,317,2.12,10,10,9999,99999,9,999999999,999,0.999,0.0,99,0.2,0.0,0
2026,1,4,6,60,?9?9?9?9,-21.8,-25.0,75,99650,9999,9999,9999,0,0,0,999999,999999,999999,9999,315,2.12,10,10,9999,99999,9,999999999,999,0.999,0.0,99,0.2,0.0,0
2026,1,4,7,60,?9?9?9?9,-21.7,-24.9,76,99690,9999,9999,9999,0,0,0,999999,999999,999999,9999,316,2.16,8,8,9999,99999,9,999999999,999,0.999,0.0,99,0.2,0.0,0
2026,1,4,8,60,?9?9?9?9,-21.1,-23.8,79,99770,9999,9999,9999,0,0,0,999999,999999,999999,9999,307,1.5,9,9,9999,99999,9,999999999,999,0.999,0.0,99,0.2,0.0,0
2026,1,4,9,60,?9?9?9?9,-20.8,-23.8,77,99840,9999,9999,9999,3,26,2,999999,999999,999999,9999,314,2.58,2,2,9999,99999,9,999999999,999,0.999,0.0,99,0.2,0.0,0
2026,1,4,10,60,?9?9?9?9,-19.4,-23.0,72,99910,9999,9999,9999,86,423,38,999999,999999,999999,9999,312,2.69,0,0,9999,99999,9,999999999,999,0.999,0.0,99,0.2,0.0,0
2026,1,4,11,60,?9?9?9?9,-17.6,-23.0,63,99960,9999,9999,9999,217,701,57,999999,999999,999999,9999,308,1.64,0,0,9999,99999,9,999999999,999,0.999,0.0,99,0.2,0.0,0
2026,1,4,12,60,?9?9?9?9,-15.9,-22.8,55,99920,9999,9999,9999,315,801,68,999999,999999,999999,9999,318,1.49,0,0,9999,99999,9,999999999,999,0.999,0.0,99,0.2,0.0,0
2026,1,4,13,60,?9?9?9?9,-14.9,-22.9,50,99860,9999,9999,9999,365,835,74,999999,999999,999999,9999,323,1.32,0,0,9999,99999,9,999999999,999,0.999,0.0,99,0.2,0.0,0
2026,1,4,14,60,?9?9?9?9,-14.4,-22.5,50,99820,9999,9999,9999,361,827,75,999999,999999,999999,9999,316,1.38,1,1,9999,99999,9,999999999,999,0.999,0.0,99,0.2,0.0,0
2026,1,4,15,60,?9?9?9?9,-13.4,-21.6,50,99850,9999,9999,9999,301,762,72,999999,999999,999999,9999,293,1.41,9,9,9999,99999,9,999999999,999,0.999,0.0,99,0.2,0.0,0
2026,1,4,16,60,?9?9?9?9,-13.5,-21.0,53,99890,9999,9999,9999,183,496,76,999999,999999,999999,9999,274,1.3,10,10,9999,99999,9,999999999,999,0.999,0.0,99,0.2,0.0,0
2026,1,4,17,60,?9?9?9?9,-16.1,-21.2,65,99890,9999,9999,9999,60,174,43,999999,999999,999999,9999,225,1.2,8,8,9999,99999,9,999999999,999,0.999,0.0,99,0.2,0.0,0
2026,1,4,18,60,?9?9?9?9,-18.3,-22.0,72,99910,9999,9999,9999,1,0,1,999999,999999,999999,9999,229,1.67,10,10,9999,99999,9,999999999,999,0.999,0.0,99,0.2,0.0,0
2026,1,4,19,60,?9?9?9?9,-19.5,-22.8,75,99950,9999,9999,9999,0,0,0,999999,999999,999999,9999,264,1.41,8,8,9999,99999,9,999999999,999,0.999,0.0,99,0.2,0.0,0
2026,1,4,20,60,?9?9?9?9,-19.2,-22.5,75,100010,9999,9999,9999,0,0,0,999999,999999,999999,9999,303,1.91,5,5,9999,99999,9,999999999,999,0.999,0.0,99,0.2,0.0,0
2026,1,4,21,60,?9?9?9?9,-19.3,-22.9,73,100030,9999,9999,9999,0,0,0,999999,999999,999999,9999,313,2.62,0,0,9999,99999,9,999999999,999,0.999,0.0,99,0.2,0.0,0
2026,1,4,22,60,?9?9?9?9,-19.6,-23.2,73,100080,9999,9999,9999,0,0,0,999999,999999,999999,9999,312,3.22,0,0,9999,99999,9,999999999,999,0.999,0.0,99,0.2,0.0,0
2026,1,4,23,60,?9?9?9?9,-19.5,-22.9,74,100110,9999,9999,9999,0,0,0,999999,999999,999999,9999,318,3.58,0,0,9999,99999,9,999999999,999,0.999,0.0,99,0.2,0.0,0
2026,1,4,24,60,?9?9?9?9,-19.2,-22.6,74,100150,9999,9999,9999,0,0,0,999999,999999,999999,9999,317,3.71,0,0,9999,99999,9,999999999,999,0.999,0.0,99,0.2,0.0,0
2026,1,5,1,60,?9?9?9?9,-19.4,-22.8,74,100160,9999,9999,9999,0,0,0,999999,999999,999999,9999,318,3.72,0,0,9999,99999,9,999999999,999,0.999,0.0,99,0.2,0.0,0
2026,1,5,2,60,?9?9?9?9,-19.8,-23.4,73,100200,9999,9999,9999,0,0,0,999999,999999,999999,9999,322,4.02,0,0,9999,99999,9,999999999,999,0.999,0.0,99,0.2,0.0,0
2026,1,5,3,60,?9?9?9?9,-20.1,-23.8,73,100260,9999,9999,9999,0,0,0,999999,999999,999999,9999,324,3.51,0,0,9999,99999,9,999999999,999,0.999,0.0,99,0.2,0.0,0
2026,1,5,4,60,?9?9?9?9,-20.7,-24.2,73,100300,9999,9999,9999,0,0,0,999999,999999,999999,9999,324,3.01,0,0,9999,99999,9,999999999,999,0.999,0.0,99,0.2,0.0,0
2026,1,5,5,60,?9?9?9?9,-22.0,-25.5,73,100280,9999,9999,9999,0,0,0,999999,999999,999999,9999,318,1.81,0,0,9999,99999,9,999999999,999,0.999,0.0,99,0.2,0.0,0
2026,1,5,6,60,?9?9?9?9,-23.0,-26.4,74,100290,9999,9999,9999,0,0,0,999999,999999,999999,9999,287,0.52,0,0,9999,99999,9,999999999,999,0.999,0.0,99,0.2,0.0,0
2026,1,5,7,60,?9?9?9?9,-23.8,-27.1,74,100290,9999,9999,9999,0,0,0,999999,999999,999999,9999,276,0.45,0,0,9999,99999,9,999999999,999,0.999,0.0,99,0.2,0.0,0
2026,1,5,8,60,?9?9?9?9,-24.1,-27.4,74,100300,9999,9999,9999,0,0,0,999999,999999,999999,9999,280,1.42,3,3,9999,99999,9,999999999,999,0.999,0.0,99,0.2,0.0,0
2026,1,5,9,60,?9?9?9?9,-23.8,-27.2,73,100320,9999,9999,9999,4,52,2,999999,999999,999999,9999,295,1.54,0,0,9999,99999,9,999999999,999,0.999,0.0,99,0.2,0.0,0
2026,1,5,10,60,?9?9?9?9,-21.4,-25.6,69,100360,9999,9999,9999,90,490,34,999999,999999,999999,9999,308,1.46,10,10,9999,99999,9,999999999,999,0.999,0.0,99,0.2,0.0,0
2026,1,5,11,60,?9?9?9?9,-17.7,-23.9,58,100350,9999,9999,9999,205,580,72,999999,999999,999999,9999,234,0.43,10,10,9999,99999,9,999999999,999,0.999,0.0,99,0.2,0.0,0
2026,1,5,12,60,?9?9?9?9,-16.0,-22.8,56,100300,9999,9999,9999,266,413,138,999999,999999,999999,9999,192,1.64,10,10,9999,99999,9,999999999,999,0.999,0.0,99,0.2,0.0,0
2026,1,5,13,60,?9?9?9?9,-15.3,-21.8,58,100170,9999,9999,9999,286,297,182,999999,999999,999999,9999,180,2.0,10,10,9999,99999,9,999999999,999,0.999,0.0,99,0.2,0.0,0
2026,1,5,14,60,?9?9?9?9,-15.4,-20.6,64,100100,9999,9999,9999,197,89,166,999999,999999,999999,9999,171,2.18,10,10,9999,99999,9,999999999,999,0.999,0.0,99,0.2,0.0,0
2026,1,5,15,60,?9?9?9?9,-15.2,-19.9,68,100070,9999,9999,9999,148,0,148,999999,999999,999999,9999,157,1.79,10,10,9999,99999,9,999999999,999,0.999,0.001,99,0.2,0.1,1
2026,1,5,16,60,?9?9?9?9,-15.2,-19.4,71,100040,9999,9999,9999,95,0,95,999999,999999,999999,9999,158,2.04,10,10,9999,99999,9,999999999,999,0.999,0.001,99,0.2,0.1,1
2026,1,5,17,60,?9?9?9?9,-15.5,-19.0,75,100020,9999,9999,9999,41,10,40,999999,999999,999999,9999,158,1.73,10,10,9999,99999,9,999999999,999,0.999,0.001,99,0.2,0.1,1
2026,1,5,18,60,?9?9?9?9,-15.5,-18.7,76,100020,9999,9999,9999,1,0,1,999999,999999,999999,9999,135,0.99,10,10,9999,99999,9,999999999,999,0.999,0.001,99,0.2,0.1,1
2026,1,5,19,60,?9?9?9?9,-15.5,-18.4,78,100020,9999,9999,9999,0,0,0,999999,999999,999999,9999,76,0.82,10,10,9999,99999,9,999999999,999,0.999,0.001,99,0.2,0.1,1
2026,1,5,20,60,?9?9?9?9,-15.6,-18.3,79,99930,9999,9999,9999,0,0,0,999999,999999,999999,9999,68,1.46,10,10,9999,99999,9,999999999,999,0.999,0.001,99,0.2,0.2,1
2026,1,5,21,60,?9?9?9?9,-15.6,-18.1,81,99900,9999,9999,9999,0,0,0,999999,999999,999999,9999,69,1.5,10,10,9999,99999,9,999999999,999,0.999,0.001,99,0.2,0.1,1
2026,1,5,22,60,?9?9?9?9,-16.0,-18.1,83,99880,9999,9999,9999,0,0,0,999999,999999,999999,9999,46,1.38,10,10,9999,99999,9,999999999,999,0.999,0.001,99,0.2,0.1,1
2026,1,5,23,60,?9?9?9?9,-17.2,-19.3,84,99830,9999,9999,9999,0,0,0,999999,999999,999999,9999,43,1.17,10,10,9999,99999,9,999999999,999,0.999,0.0,99,0.2,0.0,0
2026,1,5,24,60,?9?9?9?9,-18.4,-20.5,84,99790,9999,9999,9999,0,0,0,999999,999999,999999,9999,27,1.68,1,1,9999,99999,9,999999999,999,0.999,0.0,99,0.2,0.0,0
2026,1,6,1,60,?9?9?9?9,-18.6,-21.0,82,99780,9999,9999,9999,0,0,0,999999,999999,999999,9999,18,2.06,9,9,9999,99999,9,999999999,999,0.999,0.0,99,0.2,0.0,0
2026,1,6,2,60,?9?9?9?9,-16.9,-19.4,81,99750,9999,9999,9999,0,0,0,999999,999999,999999,9999,16,1.82,9,9,9999,99999,9,999999999,999,0.999,0.0,99,0.2,0.0,0
2026,1,6,3,60,?9?9?9?9,-17.2,-19.7,81,99750,9999,9999,9999,0,0,0,999999,999999,999999,9999,2,1.65,1,1,9999,99999,9,999999999,999,0.999,0.0,99,0.2,0.0,0
2026,1,6,4,60,?9?9?9?9,-18.1,-20.8,80,99760,9999,9999,9999,0,0,0,999999,999999,999999,9999,353,1.76,1,1,9999,99999,9,999999999,999,0.999,0.0,99,0.2,0.0,0
2026,1,6,5,60,?9?9?9?9,-18.9,-21.4,80,99750,9999,9999,9999,0,0,0,999999,999999,999999,9999,344,2.03,1,1,9999,99999,9,999999999,999,0.999,0.0,99,0.2,0.0,0
2026,1,6,6,60,?9?9?9?9,-19.5,-21.9,81,99740,9999,9999,9999,0,0,0,999999,999999,999999,9999,347,1.95,0,0,9999,99999,9,999999999,999,0.999,0.0,99,0.2,0.0,0
2026,1,6,7,60,?9?9?9?9,-20.2,-22.5,81,99710,9999,9999,9999,0,0,0,999999,999999,999999,9999,345,1.39,0,0,9999,99999,9,999999999,999,0.999,0.0,99,0.2,0.0,0
2026,1,6,8,60,?9?9?9?9,-20.0,-22.5,81,99720,9999,9999,9999,0,0,0,999999,999999,999999,9999,331,1.25,6,6,9999,99999,9,999999999,999,0.999,0.0,99,0.2,0.0,0
2026,1,6,9,60,?9?9?9?9,-18.9,-21.1,82,99780,9999,9999,9999,3,0,3,999999,999999,999999,9999,329,1.17,10,10,9999,99999,9,999999999,999,0.999,0.0,99,0.2,0.0,0
2026,1,6,10,60,?9?9?9?9,-16.1,-19.8,73,99770,9999,9999,9999,63,174,43,999999,999999,999999,9999,342,1.0,10,10,9999,99999,9,999999999,999,0.999,0.0,99,0.2,0.0,0
2026,1,6,11,60,?9?9?9?9,-12.6,-17.0,70,99820,9999,9999,9999,126,65,111,999999,999999,999999,9999,10,0.56,10,10,9999,99999,9,999999999,999,0.999,0.0,99,0.2,0.0,0
2026,1,6,12,60,?9?9?9?9,-11.2,-15.4,71,99780,9999,9999,9999,158,77,134,999999,999999,999999,9999,84,0.45,10,10,9999,99999,9,999999999,999,0.999,0.0,99,0.2,0.0,0
2026,1,6,13,60,?9?9?9?9,-10.1,-14.1,72,99660,9999,9999,9999,203,68,179,999999,999999,999999,9999,120,0.99,10,10,9999,99999,9,999999999,999,0.999,0.0,99,0.2,0.0,0
2026,1,6,14,60,?9?9?9?9,-9.7,-13.1,76,99560,9999,9999,9999,183,60,162,999999,999999,999999,9999,118,1.36,10,10,9999,99999,9,999999999,999,0.999,0.0,99,0.2,0.0,0
2026,1,6,15,60,?9?9?9?9,-9.6,-12.4,80,99520,9999,9999,9999,156,33,146,999999,999999,999999,9999,116,1.61,10,10,9999,99999,9,999999999,999,0.999,0.0,99,0.2,0.0,0
2026,1,6,16,60,?9?9?9?9,-9.6,-11.9,83,99490,9999,9999,9999,68,0,68,999999,999999,999999,9999,103,1.54,10,10,9999,99999,9,999999999,999,0.999,0.0,99,0.2,0.0,0
2026,1,6,17,60,?9?9?9?9,-9.8,-11.6,86,99440,9999,9999,9999,29,20,27,999999,999999,999999,9999,60,1.72,10,10,9999,99999,9,999999999,999,0.999,0.0,99,0.2,0.0,0
2026,1,6,18,60,?9?9?9?9,-9.7,-11.4,87,99400,9999,9999,9999,1,0,1,999999,999999,999999,9999,45,1.91,10,10,9999,99999,9,999999999,999,0.999,0.0,99,0.2,0.0,0
2026,1,6,19,60,?9?9?9?9,-9.4,-11.1,87,99390,9999,9999,9999,0,0,0,999999,999999,999999,9999,52,1.78,10,10,9999,99999,9,999999999,999,0.999,0.0,99,0.2,0.0,0
2026,1,6,20,60,?9?9?9?9,-8.4,-9.9,89,99330,9999,9999,9999,0,0,0,999999,999999,999999,9999,36,1.97,10,10,9999,99999,9,999999999,999,0.999,0.0,99,0.2,0.0,0
2026,1,6,21,60,?9?9?9?9,-8.2,-9.6,90,99260,9999,9999,9999,0,0,0,999999,999999,999999,9999,37,2.39,10,10,9999,99999,9,999999999,999,0.999,0.0,99,0.2,0.0,0
2026,1,6,22,60,?9?9?9?9,-8.8,-10.1,90,99190,9999,9999,9999,0,0,0,999999,999999,999999,9999,36,2.86,10,10,9999,99999,9,999999999,999,0.999,0.0,99,0.2,0.0,0
2026,1,6,23,60,?9?9?9?9,-8.8,-10.1,90,99120,9999,9999,9999,0,0,0,999999,999999,999999,9999,44,3.04,10,10,9999,99999,9,999999999,999,0.999,0.0,99,0.2,0.0,0
2026,1,6,24,60,?9?9?9?9,-8.4,-9.7,90,99070,9999,9999,9999,0,0,0,999999,999999,999999,9999,51,3.2,10,10,9999,99999,9,999999999,999,0.999,0.0,99,0.2,0.0,0
2026,1,7,1,60,?9?9?9?9,-8.1,-9.4,90,98990,9999,9999,9999,0,0,0,999999,999999,999999,9999,59,3.21,10,10,9999,99999,9,999999999,999,0.999,0.0,99,0.2,0.0,0
2026,1,7,2,60,?9?9?9?9,-7.7,-9.1,90,98890,9999,9999,9999,0,0,0,999999,999999,999999,9999,61,3.31,10,10,9999,99999,9,999999999,999,0.999,0.0,99,0.2,0.0,0
2026,1,7,3,60,?9?9?9?9,-7.4,-9.0,89,98870,9999,9999,9999,0,0,0,999999,999999,999999,9999,63,3.24,10,10,9999,99999,9,999999999,999,0.999,0.0,99,0.2,0.0,0
2026,1,7,4,60,?9?9?9?9,-7.3,-9.0,88,98850,9999,9999,9999,0,0,0,999999,999999,999999,9999,63,3.35,10,10,9999,99999,9,999999999,999,0.999,0.0,99,0.2,0.0,0
2026,1,7,5,60,?9?9?9?9,-7.3,-9.1,87,98790,9999,9999,9999,0,0,0,999999,999999,999999,9999,59,3.39,10,10,9999,99999,9,999999999,999,0.999,0.0,99,0.2,0.0,0
2026,1,7,6,60,?9?9?9?9,-6.6,-8.6,86,98760,9999,9999,9999,0,0,0,999999,999999,999999,9999,59,3.43,10,10,9999,99999,9,999999999,999,0.999,0.0,99,0.2,0.0,0
2026,1,7,7,60,?9?9?9?9,-6.1,-8.1,86,98760,9999,9999,9999,0,0,0,999999,999999,999999,9999,58,3.34,10,10,9999,99999,9,999999999,999,0.999,0.001,99,0.2,0.1,1
2026,1,7,8,60,?9?9?9?9,-5.7,-7.7,86,98770,9999,9999,9999,0,0,0,999999,999999,999999,9999,55,3.34,10,10,9999,99999,9,999999999,999,0.999,0.001,99,0.2,0.2,1
2026,1,7,9,60,?9?9?9?9,-5.4,-7.5,85,98820,9999,9999,9999,1,0,1,999999,999999,999999,9999,47,3.4,10,10,9999,99999,9,999999999,999,0.999,0.001,99,0.2,0.1,1
2026,1,7,10,60,?9?9?9?9,-4.9,-7.2,84,98840,9999,9999,9999,21,0,21,999999,999999,999999,9999,48,3.75,10,10,9999,99999,9,999999999,999,0.999,0.001,99,0.2,0.1,1
2026,1,7,11,60,?9?9?9?9,-4.3,-6.7,84,98900,9999,9999,9999,46,0,46,999999,999999,999999,9999,44,3.01,10,10,9999,99999,9,999999999,999,0.999,0.001,99,0.2,0.2,1
2026,1,7,12,60,?9?9?9?9,-3.9,-6.0,85,98880,9999,9999,9999,64,0,64,999999,999999,999999,9999,44,2.9,10,10,9999,99999,9,999999999,999,0.999,0.002,99,0.2,0.3,1
2026,1,7,13,60,?9?9?9?9,-3.4,-5.3,86,98840,9999,9999,9999,83,0,83,999999,999999,999999,9999,49,3.23,10,10,9999,99999,9,999999999,999,0.999,0.002,99,0.2,0.3,1
2026,1,7,14,60,?9?9?9?9,-2.7,-4.4,87,98810,9999,9999,9999,119,3,118,999999,999999,999999,9999,54,3.04,10,10,9999,99999,9,999999999,999,0.999,0.001,99,0.2,0.1,1
2026,1,7,15,60,?9?9?9?9,-2.2,-4.2,86,98830,9999,9999,9999,97,0,97,999999,999999,999999,9999,48,2.62,10,10,9999,99999,9,999999999,999,0.999,0.0,99,0.2,0.0,0
2026,1,7,16,60,?9?9?9?9,-2.0,-4.0,87,98910,9999,9999,9999,68,0,68,999999,999999,999999,9999,40,2.23,10,10,9999,99999,9,999999999,999,0.999,0.0,99,0.2,0.0,0
2026,1,7,17,60,?9?9?9?9,-2.2,-3.8,89,99020,9999,9999,9999,32,0,32,999999,999999,999999,9999,28,1.07,10,10,9999,99999,9,999999999,999,0.999,0.0,99,0.2,0.0,0
2026,1,7,18,60,?9?9?9?9,-2.4,-3.7,91,99110,9999,9999,9999,1,0,1,999999,999999,999999,9999,341,1.38,10,10,9999,99999,9,999999999,999,0.999,0.0,99,0.2,0.0,0
2026,1,7,19,60,?9?9?9?9,-2.3,-3.6,91,99180,9999,9999,9999,0,0,0,999999,999999,999999,9999,23,1.3,10,10,9999,99999,9,999999999,999,0.999,0.0,99,0.2,0.0,0
2026,1,7,20,60,?9?9?9?9,-2.3,-3.5,91,99270,9999,9999,9999,0,0,0,999999,999999,999999,9999,330,1.21,10,10,9999,99999,9,999999999,999,0.999,0.0,99,0.2,0.0,0
2026,1,7,21,60,?9?9?9?9,-2.2,-3.6,90,99310,9999,9999,9999,0,0,0,999999,999999,999999,9999,304,0.18,10,10,9999,99999,9,999999999,999,0.999,0.0,99,0.2,0.0,0
2026,1,7,22,60,?9?9?9?9,-2.3,-3.5,92,99320,9999,9999,9999,0,0,0,999999,999999,999999,9999,227,1.17,10,10,9999,99999,9,999999999,999,0.999,0.0,99,0.2,0.0,0
2026,1,7,23,60,?9?9?9?9,-2.6,-3.7,92,99350,9999,9999,9999,0,0,0,999999,999999,999999,9999,225,1.34,10,10,9999,99999,9,999999999,999,0.999,0.0,99,0.2,0.0,0
2026,1,7,24,60,?9?9?9?9,-2.8,-3.8,92,99410,9999,9999,9999,0,0,0,999999,999999,999999,9999,219,1.74,10,10,9999,99999,9,999999999,999,0.999,0.0,99,0.2,0.0,0
2026,1,8,1,60,?9?9?9?9,-3.0,-4.0,93,99400,9999,9999,9999,0,0,0,999999,999999,999999,9999,190,1.37,10,10,9999,99999,9,999999999,999,0.999,0.0,99,0.2,0.0,0
2026,1,8,2,60,?9?9?9?9,-2.7,-3.7,92,99440,9999,9999,9999,0,0,0,999999,999999,999999,9999,209,1.84,10,10,9999,99999,9,999999999,999,0.999,0.0,99,0.2,0.0,0
2026,1,8,3,60,?9?9?9?9,-2.5,-3.7,91,99510,9999,9999,9999,0,0,0,999999,999999,999999,9999,223,1.63,10,10,9999,99999,9,999999999,999,0.999,0.0,99,0.2,0.0,0
2026,1,8,4,60,?9?9?9?9,-2.5,-3.5,92,99570,9999,9999,9999,0,0,0,999999,999999,999999,9999,215,1.4,10,10,9999,99999,9,999999999,999,0.999,0.0,99,0.2,0.0,0
2026,1,8,5,60,?9?9?9?9,-2.5,-3.5,93,99600,9999,9999,9999,0,0,0,999999,999999,999999,9999,215,1.65,10,10,9999,99999,9,999999999,999,0.999,0.0,99,0.2,0.0,0
2026,1,8,6,60,?9?9?9?9,-2.4,-3.4,93,99640,9999,9999,9999,0,0,0,999999,999999,999999,9999,225,1.77,10,10,9999,99999,9,999999999,999,0.999,0.0,99,0.2,0.0,0
2026,1,8,7,60,?9?9?9?9,-2.4,-3.5,92,99710,9999,9999,9999,0,0,0,999999,999999,999999,9999,238,1.71,9,9,9999,99999,9,999999999,999,0.999,0.0,99,0.2,0.0,0
2026,1,8,8,60,?9?9?9?9,-2.4,-3.8,90,99820,9999,9999,9999,0,0,0,999999,999999,999999,9999,262,1.77,8,8,9999,99999,9,999999999,999,0.999,0.0,99,0.2,0.0,0
2026,1,8,9,60,?9?9?9?9,-1.6,-3.2,89,99900,9999,9999,9999,2,0,2,999999,999999,999999,9999,285,2.33,10,10,9999,99999,9,999999999,999,0.999,0.0,99,0.2,0.0,0
2026,1,8,10,60,?9?9?9?9,-0.1,-2.7,83,99990,9999,9999,9999,47,34,43,999999,999999,999999,9999,286,2.5,10,10,9999,99999,9,999999999,999,0.999,0.0,99,0.2,0.0,0
2026,1,8,11,60,?9?9?9?9,1.2,-2.3,77,100040,9999,9999,9999,114,52,102,999999,999999,999999,9999,284,2.11,9,9,9999,99999,9,999999999,999,0.999,0.0,99,0.2,0.0,0
2026,1,8,12,60,?9?9?9?9,2.0,-2.2,73,100090,9999,9999,9999,206,194,145,999999,999999,999999,9999,269,2.2,7,7,9999,99999,9,999999999,999,0.999,0.0,99,0.2,0.0,0
2026,1,8,13,60,?9?9?9?9,2.6,-3.0,67,100080,9999,9999,9999,249,239,164,999999,999999,999999,9999,269,2.3,9,9,9999,99999,9,999999999,999,0.999,0.0,99,0.2,0.0,0
2026,1,8,14,60,?9?9?9?9,1.8,-3.8,66,100160,9999,9999,9999,192,107,154,999999,999999,999999,9999,265,2.31,10,10,9999,99999,9,999999999,999,0.999,0.0,99,0.2,0.0,0
2026,1,8,15,60,?9?9?9?9,2.1,-3.8,65,100190,9999,9999,9999,169,97,139,999999,999999,999999,9999,246,2.24,10,10,9999,99999,9,999999999,999,0.999,0.0,99,0.2,0.0,0
2026,1,8,16,60,?9?9?9?9,2.0,-2.8,71,100290,9999,9999,9999,99,18,95,999999,999999,999999,9999,229,2.06,10,10,9999,99999,9,999999999,999,0.999,0.0,99,0.2,0.0,0
2026,1,8,17,60,?9?9?9?9,1.2,-2.1,79,100310,9999,9999,9999,37,0,37,999999,999999,999999,9999,188,1.51,10,10,9999,99999,9,999999999,999,0.999,0.0,99,0.2,0.0,0
2026,1,8,18,60,?9?9?9?9,-0.3,-1.5,92,100350,9999,9999,9999,2,0,2,999999,999999,999999,9999,184,2.56,6,6,9999,99999,9,999999999,999,0.999,0.0,99,0.2,0.0,0
2026,1,8,19,60,?9?9?9?9,-1.9,-2.5,95,100400,9999,9999,9999,0,0,0,999999,999999,999999,9999,205,1.77,1,1,9999,99999,9,999999999,999,0.999,0.0,99,0.2,0.0,0
2026,1,8,20,60,?9?9?9?9,-0.3,-0.9,96,100420,9999,9999,9999,0,0,0,999999,999999,999999,9999,206,2.77,10,10,9999,99999,9,999999999,999,0.999,0.0,99,0.2,0.0,0
2026,1,8,21,60,?9?9?9?9,-0.9,-1.2,98,100500,9999,9999,9999,0,0,0,999999,999999,999999,9999,220,2.27,10,10,9999,99999,9,999999999,999,0.999,0.0,99,0.2,0.0,0
2026,1,8,22,60,?9?9?9?9,-1.1,-1.4,98,100490,9999,9999,9999,0,0,0,999999,999999,999999,9999,199,1.69,10,10,9999,99999,9,999999999,999,0.999,0.0,99,0.2,0.0,0
2026,1,8,23,60,?9?9?9?9,-1.7,-2.0,98,100450,9999,9999,9999,0,0,0,999999,999999,999999,9999,185,1.76,10,10,9999,99999,9,999999999,999,0.999,0.0,99,0.2,0.0,0
2026,1,8,24,60,?9?9?9?9,-1.9,-2.0,99,100440,9999,9999,9999,0,0,0,999999,999999,999999,9999,189,2.02,10,10,9999,99999,9,999999999,999,0.999,0.0,99,0.2,0.0,0
2026,1,9,1,60,?9?9?9?9,-1.3,-1.5,98,100390,9999,9999,9999,0,0,0,999999,999999,999999,9999,183,2.05,10,10,9999,99999,9,999999999,999,0.999,0.0,99,0.2,0.0,0
2026,1,9,2,60,?9?9?9?9,-1.0,-1.5,97,100400,9999,9999,9999,0,0,0,999999,999999,999999,9999,174,2.31,10,10,9999,99999,9,999999999,999,0.999,0.0,99,0.2,0.0,0
2026,1,9,3,60,?9?9?9?9,-0.3,-0.9,96,100410,9999,9999,9999,0,0,0,999999,999999,999999,9999,163,2.4,10,10,9999,99999,9,999999999,999,0.999,0.0,99,0.2,0.0,0
2026,1,9,4,60,?9?9?9?9,-0.8,-1.1,97,100370,9999,9999,9999,0,0,0,999999,999999,999999,9999,150,2.13,10,10,9999,99999,9,999999999,999,0.999,0.0,99,0.2,0.0,0
2026,1,9,5,60,?9?9?9?9,-1.1,-1.5,97,100300,9999,9999,9999,0,0,0,999999,999999,999999,9999,142,2.42,10,10,9999,99999,9,999999999,999,0.999,0.0,99,0.2,0.0,0
2026,1,9,6,60,?9?9?9?9,-1.4,-1.8,97,100200,9999,9999,9999,0,0,0,999999,999999,999999,9999,126,2.61,10,10,9999,99999,9,999999999,999,0.999,0.0,99,0.2,0.0,0
2026,1,9,7,60,?9?9?9?9,-2.0,-2.5,96,100050,9999,9999,9999,0,0,0,999999,999999,999999,9999,113,2.82,10,10,9999,99999,9,999999999,999,0.999,0.0,99,0.2,0.0,0
2026,1,9,8,60,?9?9?9?9,-1.8,-2.3,96,100030,9999,9999,9999,0,0,0,999999,999999,999999,9999,112,3.03,10,10,9999,99999,9,999999999,999,0.999,0.0,99,0.2,0.0,0
2026,1,9,9,60,?9?9?9?9,-1.4,-2.2,94,100020,9999,9999,9999,2,0,2,999999,999999,999999,9999,122,2.61,10,10,9999,99999,9,999999999,999,0.999,0.0,99,0.2,0.0,0
2026,1,9,10,60,?9?9?9?9,-0.8,-2.1,91,99830,9999,9999,9999,15,0,15,999999,999999,999999,9999,106,3.53,10,10,9999,99999,9,999999999,999,0.999,0.0,99,0.2,0.1,1
2026,1,9,11,60,?9?9?9?9,0.0,-2.0,87,99700,9999,9999,9999,46,0,46,999999,999999,999999,9999,102,3.32,10,10,9999,99999,9,999999999,999,0.999,0.0,99,0.2,0.0,0
2026,1,9,12,60,?9?9?9?9,1.6,-1.9,77,99580,9999,9999,9999,129,16,124,999999,999999,999999,9999,131,3.23,10,10,9999,99999,9,999999999,999,0.999,0.0,99,0.2,0.0,0
2026,1,9,13,60,?9?9?9?9,3.0,-1.9,71,99400,9999,9999,9999,156,25,147,999999,999999,999999,9999,158,4.2,10,10,9999,99999,9,999999999,999,0.999,0.0,99,0.2,0.0,0
2026,1,9,14,60,?9?9?9?9,3.0,-1.2,74,99170,9999,9999,9999,93,0,93,999999,999999,999999,9999,172,5.35,10,10,9999,99999,9,999999999,999,0.999,0.004,99,0.2,1.4,1
2026,1,9,15,60,?9?9?9?9,2.7,-0.2,81,99040,9999,9999,9999,32,0,32,999999,999999,999999,9999,180,5.55,10,10,9999,99999,9,999999999,999,0.999,0.003,99,0.2,3.2,1
2026,1,9,16,60,?9?9?9?9,2.6,0.2,84,98930,9999,9999,9999,27,0,27,999999,999999,999999,9999,183,5.61,10,10,9999,99999,9,999999999,999,0.999,0.0,99,0.2,0.8,1
2026,1,9,17,60,?9?9?9?9,2.5,0.4,87,98770,9999,9999,9999,11,0,11,999999,999999,999999,9999,179,5.3,10,10,9999,99999,9,999999999,999,0.999,0.003,99,0.2,1.6,1
2026,1,9,18,60,?9?9?9?9,2.8,0.7,86,98670,9999,9999,9999,1,0,1,999999,999999,999999,9999,180,5.4,10,10,9999,99999,9,999999999,999,0.999,0.0,99,0.2,0.1,1
2026,1,9,19,60,?9?9?9?9,3.0,0.9,86,98540,9999,9999,9999,0,0,0,999999,999999,999999,9999,186,5.88,10,10,9999,99999,9,999999999,999,0.999,0.0,99,0.2,0.1,1
2026,1,9,20,60,?9?9?9?9,2.5,1.0,90,98400,9999,9999,9999,0,0,0,999999,999999,999999,9999,185,5.87,10,10,9999,99999,9,999999999,999,0.999,0.0,99,0.2,0.6,1
2026,1,9,21,60,?9?9?9?9,3.0,1.4,89,98270,9999,9999,9999,0,0,0,999999,999999,999999,9999,192,5.79,10,10,9999,99999,9,999999999,999,0.999,0.0,99,0.2,0.1,1
2026,1,9,22,60,?9?9?9?9,3.4,1.9,90,98220,9999,9999,9999,0,0,0,999999,999999,999999,9999,208,6.24,10,10,9999,99999,9,999999999,999,0.999,0.0,99,0.2,0.5,1
2026,1,9,23,60,?9?9?9?9,4.0,2.5,90,98250,9999,9999,9999,0,0,0,999999,999999,999999,9999,224,6.47,10,10,9999,99999,9,999999999,999,0.999,0.0,99,0.2,0.2,1
2026,1,9,24,60,?9?9?9?9,5.1,2.5,83,98370,9999,9999,9999,0,0,0,999999,999999,999999,9999,247,6.43,8,8,9999,99999,9,999999999,999,0.999,0.0,99,0.2,0.2,1
2026,1,10,1,60,?9?9?9?9,3.4,-0.6,75,98740,9999,9999,9999,0,0,0,999999,999999,999999,9999,291,7.26,3,3,9999,99999,9,999999999,999,0.999,0.0,99,0.2,0.0,0
2026,1,10,2,60,?9?9?9?9,3.1,-1.4,73,99120,9999,9999,9999,0,0,0,999999,999999,999999,9999,293,7.9,4,4,9999,99999,9,999999999,999,0.999,0.0,99,0.2,0.0,0
2026,1,10,3,60,?9?9?9?9,1.7,-2.7,73,99470,9999,9999,9999,0,0,0,999999,999999,999999,9999,299,8.04,7,7,9999,99999,9,999999999,999,0.999,0.0,99,0.2,0.0,0
2026,1,10,4,60,?9?9?9?9,0.6,-3.5,74,99690,9999,9999,9999,0,0,0,999999,999999,999999,9999,301,7.08,4,4,9999,99999,9,999999999,999,0.999,0.0,99,0.2,0.0,0
2026,1,10,5,60,?9?9?9?9,-0.8,-4.5,76,99850,9999,9999,9999,0,0,0,999999,999999,999999,9999,307,5.89,3,3,9999,99999,9,999999999,999,0.999,0.0,99,0.2,0.0,0
2026,1,10,6,60,?9?9?9?9,-2.2,-5.8,76,100050,9999,9999,9999,0,0,0,999999,999999,999999,9999,313,4.71,4,4,9999,99999,9,999999999,999,0.999,0.0,99,0.2,0.0,0
2026,1,10,7,60,?9?9?9?9,-4.0,-7.1,79,100220,9999,9999,9999,0,0,0,999999,999999,999999,9999,309,2.2,0,0,9999,99999,9,999999999,999,0.999,0.0,99,0.2,0.0,0
2026,1,10,8,60,?9?9?9?9,-4.9,-7.7,81,100330,9999,9999,9999,0,0,0,999999,999999,999999,9999,270,1.85,9,9,9999,99999,9,999999999,999,0.999,0.0,99,0.2,0.0,0
2026,1,10,9,60,?9?9?9?9,-3.1,-5.9,81,100420,9999,9999,9999,4,0,4,999999,999999,999999,9999,295,2.64,3,3,9999,99999,9,999999999,999,0.999,0.0,99,0.2,0.0,0
2026,1,10,10,60,?9?9?9?9,-2.6,-6.2,77,100450,9999,9999,9999,75,218,49,999999,999999,999999,9999,317,1.98,3,3,9999,99999,9,999999999,999,0.999,0.0,99,0.2,0.0,0
2026,1,10,11,60,?9?9?9?9,-2.2,-7.2,69,100430,9999,9999,9999,184,351,101,999999,999999,999999,9999,347,3.23,1,1,9999,99999,9,999999999,999,0.999,0.0,99,0.2,0.0,0
2026,1,10,12,60,?9?9?9?9,-2.0,-7.8,65,100420,9999,9999,9999,316,760,74,999999,999999,999999,9999,346,2.32,6,6,9999,99999,9,999999999,999,0.999,0.0,99,0.2,0.0,0
2026,1,10,13,60,?9?9?9?9,-1.6,-7.9,62,100450,9999,9999,9999,358,718,99,999999,999999,999999,9999,326,2.05,8,8,9999,99999,9,999999999,999,0.999,0.0,99,0.2,0.0,0
2026,1,10,14,60,?9?9?9?9,-0.3,-7.6,58,100420,9999,9999,9999,356,703,103,999999,999999,999999,9999,309,1.28,9,9,9999,99999,9,999999999,999,0.999,0.0,99,0.2,0.0,0
2026,1,10,15,60,?9?9?9?9,-0.3,-7.2,60,100410,9999,9999,9999,306,703,84,999999,999999,999999,9999,333,0.67,0,0,9999,99999,9,999999999,999,0.999,0.0,99,0.2,0.0,0
2026,1,10,16,60,?9?9?9?9,-1.0,-7.9,59,100330,9999,9999,9999,217,693,56,999999,999999,999999,9999,25,1.16,0,0,9999,99999,9,999999999,999,0.999,0.0,99,0.2,0.0,0
2026,1,10,17,60,?9?9?9?9,-3.9,-7.9,73,100240,9999,9999,9999,89,499,32,999999,999999,999999,9999,42,1.95,0,0,9999,99999,9,999999999,999,0.999,0.0,99,0.2,0.0,0
2026,1,10,18,60,?9?9?9?9,-5.6,-8.4,80,100170,9999,9999,9999,4,53,2,999999,999999,999999,9999,48,3.11,10,10,9999,99999,9,999999999,999,0.999,0.0,99,0.2,0.0,0
2026,1,10,19,60,?9?9?9?9,-6.2,-8.9,81,100180,9999,9999,9999,0,0,0,999999,999999,999999,9999,43,2.48,10,10,9999,99999,9,999999999,999,0.999,0.0,99,0.2,0.0,0
2026,1,10,20,60,?9?9?9?9,-5.9,-8.7,81,100000,9999,9999,9999,0,0,0,999999,999999,999999,9999,39,3.2,10,10,9999,99999,9,999999999,999,0.999,0.0,99,0.2,0.0,0
2026,1,10,21,60,?9?9?9?9,-4.7,-7.8,79,99860,9999,9999,9999,0,0,0,999999,999999,999999,9999,55,3.19,10,10,9999,99999,9,999999999,999,0.999,0.0,99,0.2,0.0,0
2026,1,10,22,60,?9?9?9?9,-4.1,-7.2,79,99760,9999,9999,9999,0,0,0,999999,999999,999999,9999,43,3.36,10,10,9999,99999,9,999999999,999,0.999,0.0,99,0.2,0.0,0
2026,1,10,23,60,?9?9?9?9,-3.5,-6.8,78,99580,9999,9999,9999,0,0,0,999999,999999,999999,9999,51,4.97,10,10,9999,99999,9,999999999,999,0.999,0.0,99,0.2,0.0,0
2026,1,10,24,60,?9?9?9?9,-3.0,-6.3,77,99450,9999,9999,9999,0,0,0,999999,999999,999999,9999,75,5.99,10,10,9999,99999,9,999999999,999,0.999,0.0,99,0.2,0.0,0
2026,1,11,1,60,?9?9?9?9,-3.2,-5.9,82,99380,9999,9999,9999,0,0,0,999999,999999,999999,9999,79,6.22,10,10,9999,99999,9,999999999,999,0.999,0.006,99,0.2,0.9,1
2026,1,11,2,60,?9?9?9?9,-3.3,-4.8,89,99160,9999,9999,9999,0,0,0,999999,999999,999999,9999,81,5.93,10,10,9999,99999,9,999999999,999,0.999,0.02,99,0.2,2.8,1
2026,1,11,3,60,?9?9?9?9,-3.2,-4.4,91,99080,9999,9999,9999,0,0,0,999999,999999,999999,9999,83,6.3,10,10,9999,99999,9,999999999,999,0.999,0.022,99,0.2,3.1,1
2026,1,11,4,60,?9?9?9?9,-3.7,-4.8,92,98970,9999,9999,9999,0,0,0,999999,999999,999999,9999,85,6.42,10,10,9999,99999,9,999999999,999,0.999,0.018,99,0.2,2.6,1
2026,1,11,5,60,?9?9?9?9,-4.0,-5.1,92,98860,9999,9999,9999,0,0,0,999999,999999,999999,9999,82,6.41,10,10,9999,99999,9,999999999,999,0.999,0.012,99,0.2,1.7,1
2026,1,11,6,60,?9?9?9?9,-4.1,-5.2,92,98750,9999,9999,9999,0,0,0,999999,999999,999999,9999,84,6.68,10,10,9999,99999,9,999999999,999,0.999,0.008,99,0.2,1.2,1
2026,1,11,7,60,?9?9?9?9,-4.1,-4.9,94,98660,9999,9999,9999,0,0,0,999999,999999,999999,9999,88,6.65,10,10,9999,99999,9,999999999,999,0.999,0.007,99,0.2,1.0,1
2026,1,11,8,60,?9?9?9?9,-4.9,-5.7,95,98630,9999,9999,9999,0,0,0,999999,999999,999999,9999,76,4.07,10,10,9999,99999,9,999999999,999,0.999,0.006,99,0.2,1.0,1
2026,1,11,9,60,?9?9?9?9,-4.8,-5.5,95,98580,9999,9999,9999,1,0,1,999999,999999,999999,9999,77,4.16,10,10,9999,99999,9,999999999,999,0.999,0.002,99,0.2,0.4,1
2026,1,11,10,60,?9?9?9?9,-4.4,-5.2,94,98550,9999,9999,9999,15,0,15,999999,999999,999999,9999,86,4.66,10,10,9999,99999,9,999999999,999,0.999,0.001,99,0.2,0.2,1
2026,1,11,11,60,?9?9?9?9,-3.5,-4.5,93,98570,9999,9999,9999,55,0,55,999999,999999,999999,9999,94,3.36,10,10,9999,99999,9,999999999,999,0.999,0.0,99,0.2,0.1,1
2026,1,11,12,60,?9?9?9?9,-2.3,-3.3,93,98480,9999,9999,9999,64,0,64,999999,999999,999999,9999,120,2.38,10,10,9999,99999,9,999999999,999,0.999,0.0,99,0.2,0.1,1
2026,1,11,13,60,?9?9?9?9,0.4,-1.8,85,98350,9999,9999,9999,161,28,151,999999,999999,999999,9999,194,3.6,10,10,9999,99999,9,999999999,999,0.999,0.0,99,0.2,0.0,0
2026,1,11,14,60,?9?9?9?9,0.2,-3.8,74,98300,9999,9999,9999,278,268,181,999999,999999,999999,9999,203,4.68,6,6,9999,99999,9,999999999,999,0.999,0.0,99,0.2,0.0,0
2026,1,11,15,60,?9?9?9?9,-0.2,-5.2,69,98250,9999,9999,9999,282,546,108,999999,999999,999999,9999,212,5.3,10,10,9999,99999,9,999999999,999,0.999,0.0,99,0.2,0.0,0
2026,1,11,16,60,?9?9?9?9,-0.6,-5.0,72,98270,9999,9999,9999,137,119,109,999999,999999,999999,9999,203,4.17,9,9,9999,99999,9,999999999,999,0.999,0.0,99,0.2,0.0,0
2026,1,11,17,60,?9?9?9?9,-1.8,-4.9,79,98280,9999,9999,9999,74,230,47,999999,999999,999999,9999,202,4.31,8,8,9999,99999,9,999999999,999,0.999,0.0,99,0.2,0.0,0
2026,1,11,18,60,?9?9?9?9,-2.3,-4.8,84,98260,9999,9999,9999,3,0,3,999999,999999,999999,9999,211,3.75,10,10,9999,99999,9,999999999,999,0.999,0.0,99,0.2,0.0,0
2026,1,11,19,60,?9?9?9?9,-2.4,-4.6,85,98250,9999,9999,9999,0,0,0,999999,999999,999999,9999,218,3.31,10,10,9999,99999,9,999999999,999,0.999,0.0,99,0.2,0.0,0
2026,1,11,20,60,?9?9?9?9,-3.2,-5.0,87,98300,9999,9999,9999,0,0,0,999999,999999,999999,9999,231,2.45,9,9,9999,99999,9,999999999,999,0.999,0.0,99,0.2,0.0,0
2026,1,11,21,60,?9?9?9?9,-3.3,-5.7,84,98300,9999,9999,9999,0,0,0,999999,999999,999999,9999,282,3.94,10,10,9999,99999,9,999999999,999,0.999,0.0,99,0.2,0.0,0
2026,1,11,22,60,?9?9?9?9,-4.4,-8.6,72,98340,9999,9999,9999,0,0,0,999999,999999,999999,9999,304,5.52,10,10,9999,99999,9,999999999,999,0.999,0.0,99,0.2,0.0,0
2026,1,11,23,60,?9?9?9?9,-6.2,-10.4,72,98400,9999,9999,9999,0,0,0,999999,999999,999999,9999,310,5.58,9,9,9999,99999,9,999999999,999,0.999,0.0,99,0.2,0.0,0
2026,1,11,24,60,?9?9?9?9,-7.2,-11.1,73,98490,9999,9999,9999,0,0,0,999999,999999,999999,9999,312,5.73,8,8,9999,99999,9,999999999,999,0.999,0.0,99,0.2,0.0,0
2026,1,12,1,60,?9?9?9?9,-7.8,-12.1,72,98560,9999,9999,9999,0,0,0,999999,999999,999999,9999,317,5.84,1,1,9999,99999,9,999999999,999,0.999,0.0,99,0.2,0.0,0
2026,1,12,2,60,?9?9?9?9,-9.4,-12.9,75,98710,9999,9999,9999,0,0,0,999999,999999,999999,9999,304,5.3,7,7,9999,99999,9,999999999,999,0.999,0.0,99,0.2,0.0,0
2026,1,12,3,60,?9?9?9?9,-10.0,-13.8,74,98850,9999,9999,9999,0,0,0,999999,999999,999999,9999,304,5.01,4,4,9999,99999,9,999999999,999,0.999,0.0,99,0.2,0.0,0
2026,1,12,4,60,?9?9?9?9,-10.7,-14.6,73,99000,9999,9999,9999,0,0,0,999999,999999,999999,9999,295,4.59,1,1,9999,99999,9,999999999,999,0.999,0.0,99,0.2,0.0,0
2026,1,12,5,60,?9?9?9?9,-11.4,-15.4,73,99090,9999,9999,9999,0,0,0,999999,999999,999999,9999,280,4.12,2,2,9999,99999,9,999999999,999,0.999,0.0,99,0.2,0.0,0
2026,1,12,6,60,?9?9?9?9,-12.3,-16.2,73,99170,9999,9999,9999,0,0,0,999999,999999,999999,9999,284,4.54,2,2,9999,99999,9,999999999,999,0.999,0.0,99,0.2,0.0,0
2026,1,12,7,60,?9?9?9?9,-13.4,-17.2,73,99210,9999,9999,9999,0,0,0,999999,999999,999999,9999,292,3.88,0,0,9999,99999,9,999999999,999,0.999,0.0,99,0.2,0.0,0
2026,1,12,8,60,?9?9?9?9,-13.9,-16.8,79,99290,9999,9999,9999,0,0,0,999999,999999,999999,9999,271,2.9,0,0,9999,99999,9,999999999,999,0.999,0.0,99,0.2,0.0,0
2026,1,12,9,60,?9?9?9?9,-14.6,-17.6,78,99330,9999,9999,9999,6,48,4,999999,999999,999999,9999,265,2.36,0,0,9999,99999,9,999999999,999,0.999,0.0,99,0.2,0.0,0
2026,1,12,10,60,?9?9?9?9,-13.1,-17.0,73,99340,9999,9999,9999,99,523,35,999999,999999,999999,9999,272,1.7,4,4,9999,99999,9,999999999,999,0.999,0.0,99,0.2,0.0,0
2026,1,12,11,60,?9?9?9?9,-9.9,-15.1,65,99370,9999,9999,9999,208,546,77,999999,999999,999999,9999,248,1.46,9,9,9999,99999,9,999999999,999,0.999,0.0,99,0.2,0.0,0
2026,1,12,12,60,?9?9?9?9,-9.0,-14.1,66,99340,9999,9999,9999,214,211,146,999999,999999,999999,9999,195,2.38,10,10,9999,99999,9,999999999,999,0.999,0.0,99,0.2,0.0,0
2026,1,12,13,60,?9?9?9?9,-9.1,-13.1,73,99270,9999,9999,9999,151,3,150,999999,999999,999999,9999,182,2.7,10,10,9999,99999,9,999999999,999,0.999,0.0,99,0.2,0.0,0
2026,1,12,14,60,?9?9?9?9,-9.6,-12.6,79,99230,9999,9999,9999,123,0,123,999999,999999,999999,9999,180,2.35,10,10,9999,99999,9,999999999,999,0.999,0.001,99,0.2,0.1,1
2026,1,12,15,60,?9?9?9?9,-8.6,-11.4,81,99210,9999,9999,9999,157,12,153,999999,999999,999999,9999,175,2.31,10,10,9999,99999,9,999999999,999,0.999,0.0,99,0.2,0.0,0
2026,1,12,16,60,?9?9?9?9,-7.8,-10.4,82,99180,9999,9999,9999,106,8,104,999999,999999,999999,9999,166,2.01,10,10,9999,99999,9,999999999,999,0.999,0.0,99,0.2,0.0,0
2026,1,12,17,60,?9?9?9?9,-6.7,-9.0,84,99160,9999,9999,9999,49,0,49,999999,999999,999999,9999,192,2.1,10,10,9999,99999,9,999999999,999,0.999,0.0,99,0.2,0.0,0
2026,1,12,18,60,?9?9?9?9,-5.7,-7.7,85,99140,9999,9999,9999,3,0,3,999999,999999,999999,9999,215,2.73,10,10,9999,99999,9,999999999,999,0.999,0.0,99,0.2,0.0,0
2026,1,12,19,60,?9?9?9?9,-4.9,-7.1,85,99130,9999,9999,9999,0,0,0,999999,999999,999999,9999,219,2.7,10,10,9999,99999,9,999999999,999,0.999,0.0,99,0.2,0.0,0
2026,1,12,20,60,?9?9?9?9,-6.6,-8.0,90,99200,9999,9999,9999,0,0,0,999999,999999,999999,9999,214,1.98,10,10,9999,99999,9,999999999,999,0.999,0.0,99,0.2,0.0,0
2026,1,12,21,60,?9?9?9?9,-5.8,-7.1,91,99210,9999,9999,9999,0,0,0,999999,999999,999999,9999,210,1.9,10,10,9999,99999,9,999999999,999,0.999,0.0,99,0.2,0.0,0
2026,1,12,22,60,?9?9?9?9,-5.3,-6.4,92,99180,9999,9999,9999,0,0,0,999999,999999,999999,9999,215,1.83,10,10,9999,99999,9,999999999,999,0.999,0.0,99,0.2,0.0,0
2026,1,12,23,60,?9?9?9?9,-4.5,-5.6,92,99160,9999,9999,9999,0,0,0,999999,999999,999999,9999,212,2.18,10,10,9999,99999,9,999999999,999,0.999,0.0,99,0.2,0.0,0
2026,1,12,24,60,?9?9?9?9,-3.2,-4.3,92,99150,9999,9999,9999,0,0,0,999999,999999,999999,9999,215,2.69,10,10,9999,99999,9,999999999,999,0.999,0.0,99,0.2,0.0,0
2026,1,13,1,60,?9?9?9?9,-2.2,-3.4,92,99140,9999,9999,9999,0,0,0,999999,999999,999999,9999,219,3.2,10,10,9999,99999,9,999999999,999,0.999,0.0,99,0.2,0.0,0
2026,1,13,2,60,?9?9?9?9,-2.5,-3.4,93,99160,9999,9999,9999,0,0,0,999999,999999,999999,9999,216,2.9,10,10,9999,99999,9,999999999,999,0.999,0.001,99,0.2,0.1,1
2026,1,13,3,60,?9?9?9?9,-2.2,-3.2,93,99170,9999,9999,9999,0,0,0,999999,999999,999999,9999,213,2.86,10,10,9999,99999,9,999999999,999,0.999,0.001,99,0.2,0.1,1
2026,1,13,4,60,?9?9?9?9,-2.0,-3.1,92,99170,9999,9999,9999,0,0,0,999999,999999,999999,9999,209,3.09,10,10,9999,99999,9,999999999,999,0.999,0.0,99,0.2,0.0,0
2026,1,13,5,60,?9?9?9?9,-2.3,-3.3,93,99140,9999,9999,9999,0,0,0,999999,999999,999999,9999,212,3.19,10,10,9999,99999,9,999999999,999,0.999,0.0,99,0.2,0.0,0
2026,1,13,6,60,?9?9?9?9,-2.5,-3.5,93,99120,9999,9999,9999,0,0,0,999999,999999,999999,9999,211,3.46,10,10,9999,99999,9,999999999,999,0.999,0.0,99,0.2,0.0,0
2026,1,13,7,60,?9?9?9?9,-3.0,-3.8,94,99140,9999,9999,9999,0,0,0,999999,999999,999999,9999,213,3.76,9,9,9999,99999,9,999999999,999,0.999,0.0,99,0.2,0.0,0
2026,1,13,8,60,?9?9?9?9,-2.7,-3.5,94,99190,9999,9999,9999,0,0,0,999999,999999,999999,9999,218,3.85,10,10,9999,99999,9,999999999,999,0.999,0.0,99,0.2,0.0,0
2026,1,13,9,60,?9?9?9?9,-2.2,-3.2,93,99190,9999,9999,9999,3,0,3,999999,999999,999999,9999,211,3.86,10,10,9999,99999,9,999999999,999,0.999,0.0,99,0.2,0.0,0
2026,1,13,10,60,?9?9?9?9,-1.2,-2.7,90,99180,9999,9999,9999,43,32,39,999999,999999,999999,9999,212,4.25,10,10,9999,99999,9,999999999,999,0.999,0.0,99,0.2,0.0,0
2026,1,13,11,60,?9?9?9?9,-0.3,-2.3,86,99180,9999,9999,9999,88,16,84,999999,999999,999999,9999,213,4.3,10,10,9999,99999,9,999999999,999,0.999,0.0,99,0.2,0.0,0
2026,1,13,12,60,?9?9?9?9,0.2,-2.1,85,99110,9999,9999,9999,163,52,146,999999,999999,999999,9999,208,4.41,10,10,9999,99999,9,999999999,999,0.999,0.0,99,0.2,0.0,0
2026,1,13,13,60,?9?9?9?9,0.0,-1.8,88,99000,9999,9999,9999,182,92,148,999999,999999,999999,9999,201,4.27,10,10,9999,99999,9,999999999,999,0.999,0.0,99,0.2,0.0,0
2026,1,13,14,60,?9?9?9?9,-0.2,-1.6,90,98940,9999,9999,9999,128,0,128,999999,999999,999999,9999,195,4.77,10,10,9999,99999,9,999999999,999,0.999,0.0,99,0.2,0.0,0
2026,1,13,15,60,?9?9?9?9,0.1,-1.1,92,98870,9999,9999,9999,96,0,96,999999,999999,999999,9999,191,4.83,10,10,9999,99999,9,999999999,999,0.999,0.0,99,0.2,0.0,0
2026,1,13,16,60,?9?9?9?9,0.1,-0.8,94,98770,9999,9999,9999,61,0,61,999999,999999,999999,9999,175,4.16,10,10,9999,99999,9,999999999,999,0.999,0.0,99,0.2,0.0,0
2026,1,13,17,60,?9?9?9?9,-0.2,-0.4,98,98660,9999,9999,9999,23,0,23,999999,999999,999999,9999,170,3.9,10,10,9999,99999,9,999999999,999,0.999,0.0,99,0.2,0.1,1
2026,1,13,18,60,?9?9?9?9,-0.1,-1.2,92,98540,9999,9999,9999,2,0,2,999999,999999,999999,9999,176,4.11,10,10,9999,99999,9,999999999,999,0.999,0.0,99,0.2,0.0,0
2026,1,13,19,60,?9?9?9?9,-0.1,-1.8,88,98470,9999,9999,9999,0,0,0,999999,999999,999999,9999,174,3.87,10,10,9999,99999,9,999999999,999,0.999,0.0,99,0.2,0.0,0
2026,1,13,20,60,?9?9?9?9,0.0,-2.0,87,98380,9999,9999,9999,0,0,0,999999,999999,999999,9999,164,4.11,10,10,9999,99999,9,999999999,999,0.999,0.001,99,0.2,0.1,1
2026,1,13,21,60,?9?9?9?9,-0.2,-1.9,89,98290,9999,9999,9999,0,0,0,999999,999999,999999,9999,154,3.73,10,10,9999,99999,9,999999999,999,0.999,0.002,99,0.2,0.3,1
2026,1,13,22,60,?9?9?9?9,-0.2,-1.6,91,98160,9999,9999,9999,0,0,0,999999,999999,999999,9999,158,4.26,10,10,9999,99999,9,999999999,999,0.999,0.003,99,0.2,0.5,1
2026,1,13,23,60,?9?9?9?9,0.2,-0.9,92,98050,9999,9999,9999,0,0,0,999999,999999,999999,9999,172,5.1,10,10,9999,99999,9,999999999,999,0.999,0.006,99,0.2,0.8,1
2026,1,13,24,60,?9?9?9?9,0.2,-0.3,96,97940,9999,9999,9999,0,0,0,999999,999999,999999,9999,171,5.36,10,10,9999,99999,9,999999999,999,0.999,0.011,99,0.2,1.6,1
2026,1,14,1,60,?9?9?9?9,0.3,-0.2,96,97790,9999,9999,9999,0,0,0,999999,999999,999999,9999,175,5.72,10,10,9999,99999,9,999999999,999,0.999,0.008,99,0.2,1.2,1
2026,1,14,2,60,?9?9?9?9,0.3,-0.3,96,97660,9999,9999,9999,0,0,0,999999,999999,999999,9999,177,5.06,10,10,9999,99999,9,999999999,999,0.999,0.003,99,0.2,0.4,1
2026,1,14,3,60,?9?9?9?9,0.7,-0.6,91,97610,9999,9999,9999,0,0,0,999999,999999,999999,9999,186,4.93,10,10,9999,99999,9,999999999,999,0.999,0.001,99,0.2,0.2,1
2026,1,14,4,60,?9?9?9?9,1.0,-0.5,89,97560,9999,9999,9999,0,0,0,999999,999999,999999,9999,194,5.09,10,10,9999,99999,9,999999999,999,0.999,0.001,99,0.2,0.3,1
2026,1,14,5,60,?9?9?9?9,0.9,-0.1,93,97520,9999,9999,9999,0,0,0,999999,999999,999999,9999,199,5.01,10,10,9999,99999,9,999999999,999,0.999,0.004,99,0.2,0.6,1
2026,1,14,6,60,?9?9?9?9,1.1,0.1,93,97560,9999,9999,9999,0,0,0,999999,999999,999999,9999,204,5.86,10,10,9999,99999,9,999999999,999,0.999,0.003,99,0.2,0.5,1
2026,1,14,7,60,?9?9?9?9,1.9,0.3,89,97600,9999,9999,9999,0,0,0,999999,999999,999999,9999,209,5.84,10,10,9999,99999,9,999999999,999,0.999,0.0,99,0.2,0.2,1
2026,1,14,8,60,?9?9?9?9,2.0,0.7,91,97680,9999,9999,9999,0,0,0,999999,999999,999999,9999,213,5.83,10,10,9999,99999,9,999999999,999,0.999,0.0,99,0.2,0.0,0
2026,1,14,9,60,?9?9?9?9,2.4,0.8,89,97790,9999,9999,9999,2,0,2,999999,999999,999999,9999,213,5.17,10,10,9999,99999,9,999999999,999,0.999,0.0,99,0.2,0.0,0
2026,1,14,10,60,?9?9?9?9,2.5,0.8,88,97860,9999,9999,9999,40,0,40,999999,999999,999999,9999,208,4.52,10,10,9999,99999,9,999999999,999,0.999,0.0,99,0.2,0.0,0
2026,1,14,11,60,?9?9?9?9,2.5,0.9,89,97910,9999,9999,9999,56,0,56,999999,999999,999999,9999,204,4.23,10,10,9999,99999,9,999999999,999,0.999,0.0,99,0.2,0.0,0
2026,1,14,12,60,?9?9?9?9,2.4,0.9,90,97920,9999,9999,9999,95,6,93,999999,999999,999999,9999,193,4.32,10,10,9999,99999,9,999999999,999,0.999,0.0,99,0.2,0.1,1
2026,1,14,13,60,?9?9?9?9,2.3,0.7,89,97870,9999,9999,9999,115,5,113,999999,999999,999999,9999,199,4.22,10,10,9999,99999,9,999999999,999,0.999,0.0,99,0.2,0.1,1
2026,1,14,14,60,?9?9?9?9,3.0,0.9,86,97870,9999,9999,9999,184,19,177,999999,999999,999999,9999,201,4.29,10,10,9999,99999,9,999999999,999,0.999,0.0,99,0.2,0.0,0
2026,1,14,15,60,?9?9?9?9,3.1,0.7,84,97930,9999,9999,9999,140,21,133,999999,999999,999999,9999,198,3.53,10,10,9999,99999,9,999999999,999,0.999,0.0,99,0.2,0.1,1
2026,1,14,16,60,?9?9?9?9,2.5,0.6,88,97960,9999,9999,9999,70,12,67,999999,999999,999999,9999,188,3.43,10,10,9999,99999,9,999999999,999,0.999,0.0,99,0.2,0.1,1
2026,1,14,17,60,?9?9?9?9,1.8,0.4,90,98010,9999,9999,9999,52,0,52,999999,999999,999999,9999,190,2.89,10,10,9999,99999,9,999999999,999,0.999,0.0,99,0.2,0.0,0
2026,1,14,18,60,?9?9?9?9,1.4,0.3,93,98040,9999,9999,9999,2,0,2,999999,999999,999999,9999,198,2.37,10,10,9999,99999,9,999999999,999,0.999,0.0,99,0.2,0.1,1
2026,1,14,19,60,?9?9?9?9,1.1,0.4,95,98080,9999,9999,9999,0,0,0,999999,999999,999999,9999,199,2.01,10,10,9999,99999,9,999999999,999,0.999,0.0,99,0.2,0.3,1
2026,1,14,20,60,?9?9?9?9,1.4,0.8,96,98100,9999,9999,9999,0,0,0,999999,999999,999999,9999,200,2.02,10,10,9999,99999,9,999999999,999,0.999,0.0,99,0.2,0.2,1
2026,1,14,21,60,?9?9?9?9,1.3,0.9,97,98090,9999,9999,9999,0,0,0,999999,999999,999999,9999,199,1.69,10,10,9999,99999,9,999999999,999,0.999,0.0,99,0.2,0.1,1
2026,1,14,22,60,?9?9?9?9,1.0,0.8,98,98080,9999,9999,9999,0,0,0,999999,999999,999999,9999,197,1.36,10,10,9999,99999,9,999999999,999,0.999,0.0,99,0.2,0.0,0
2026,1,14,23,60,?9?9?9?9,0.9,0.7,98,98090,9999,9999,9999,0,0,0,999999,999999,999999,9999,240,1.21,10,10,9999,99999,9,999999999,999,0.999,0.0,99,0.2,0.0,0
2026,1,14,24,60,?9?9?9?9,0.9,0.6,98,98060,9999,9999,9999,0,0,0,999999,999999,999999,9999,288,0.95,10,10,9999,99999,9,999999999,999,0.999,0.0,99,0.2,0.0,0
2026,1,15,1,60,?9?9?9?9,1.0,0.6,97,98050,9999,9999,9999,0,0,0,999999,999999,999999,9999,341,3.54,10,10,9999,99999,9,999999999,999,0.999,0.0,99,0.2,0.0,0
2026,1,15,2,60,?9?9?9?9,0.6,-1.0,89,98040,9999,9999,9999,0,0,0,999999,999999,999999,9999,354,4.88,10,10,9999,99999,9,999999999,999,0.999,0.0,99,0.2,0.0,0
2026,1,15,3,60,?9?9?9?9,-1.0,-3.3,85,98040,9999,9999,9999,0,0,0,999999,999999,999999,9999,347,6.05,10,10,9999,99999,9,999999999,999,0.999,0.001,99,0.2,0.1,1
2026,1,15,4,60,?9?9?9?9,-3.5,-5.8,84,97990,9999,9999,9999,0,0,0,999999,999999,999999,9999,344,5.97,10,10,9999,99999,9,999999999,999,0.999,0.001,99,0.2,0.1,1
2026,1,15,5,60,?9?9?9?9,-5.2,-7.6,84,97920,9999,9999,9999,0,0,0,999999,999999,999999,9999,344,6.04,10,10,9999,99999,9,999999999,999,0.999,0.001,99,0.2,0.1,1
2026,1,15,6,60,?9?9?9?9,-6.8,-9.4,81,97880,9999,9999,9999,0,0,0,999999,999999,999999,9999,352,7.53,10,10,9999,99999,9,999999999,999,0.999,0.001,99,0.2,0.1,1
2026,1,15,7,60,?9?9?9?9,-7.8,-10.7,80,97870,9999,9999,9999,0,0,0,999999,999999,999999,9999,352,7.22,10,10,9999,99999,9,999999999,999,0.999,0.001,99,0.2,0.2,1
2026,1,15,8,60,?9?9?9?9,-8.6,-11.4,80,97850,9999,9999,9999,0,0,0,999999,999999,999999,9999,348,6.71,10,10,9999,99999,9,999999999,999,0.999,0.003,99,0.2,0.5,1
2026,1,15,9,60,?9?9?9?9,-9.6,-12.6,79,97790,9999,9999,9999,1,0,1,999999,999999,999999,9999,349,7.55,10,10,9999,99999,9,999999999,999,0.999,0.005,99,0.2,0.7,1
2026,1,15,10,60,?9?9?9?9,-10.5,-13.6,78,97730,9999,9999,9999,25,0,25,999999,999999,999999,9999,346,7.05,10,10,9999,99999,9,999999999,999,0.999,0.006,99,0.2,0.8,1
2026,1,15,11,60,?9?9?9?9,-11.5,-14.9,76,97700,9999,9999,9999,40,0,40,999999,999999,999999,9999,342,6.78,10,10,9999,99999,9,999999999,999,0.999,0.006,99,0.2,0.8,1
2026,1,15,12,60,?9?9?9?9,-12.1,-16.0,73,97620,9999,9999,9999,76,0,76,999999,999999,999999,9999,347,7.08,10,10,9999,99999,9,999999999,999,0.999,0.005,99,0.2,0.7,1
2026,1,15,13,60,?9?9?9?9,-12.2,-16.2,72,97520,9999,9999,9999,118,5,116,999999,999999,999999,9999,347,6.83,10,10,9999,99999,9,999999999,999,0.999,0.004,99,0.2,0.6,1
2026,1,15,14,60,?9?9?9?9,-11.8,-16.3,69,97430,9999,9999,9999,113,0,113,999999,999999,999999,9999,346,6.79,10,10,9999,99999,9,999999999,999,0.999,0.002,99,0.2,0.3,1
2026,1,15,15,60,?9?9?9?9,-12.2,-16.5,71,97420,9999,9999,9999,83,3,82,999999,999999,999999,9999,345,6.56,10,10,9999,99999,9,999999999,999,0.999,0.001,99,0.2,0.2,1
2026,1,15,16,60,?9?9?9?9,-12.7,-16.6,73,97460,9999,9999,9999,47,0,47,999999,999999,999999,9999,344,6.19,10,10,9999,99999,9,999999999,999,0.999,0.002,99,0.2,0.3,1
2026,1,15,17,60,?9?9?9?9,-12.9,-16.8,73,97530,9999,9999,9999,17,0,17,999999,999999,999999,9999,353,6.7,10,10,9999,99999,9,999999999,999,0.999,0.002,99,0.2,0.3,1
2026,1,15,18,60,?9?9?9?9,-13.1,-17.0,73,97610,9999,9999,9999,1,0,1,999999,999999,999999,9999,354,6.84,10,10,9999,99999,9,999999999,999,0.999,0.003,99,0.2,0.5,1
2026,1,15,19,60,?9?9?9?9,-13.4,-16.9,75,97660,9999,9999,9999,0,0,0,999999,999999,999999,9999,349,5.7,10,10,9999,99999,9,999999999,999,0.999,0.004,99,0.2,0.6,1
2026,1,15,20,60,?9?9?9?9,-13.9,-17.5,74,97790,9999,9999,9999,0,0,0,999999,999999,999999,9999,338,3.77,10,10,9999,99999,9,999999999,999,0.999,0.002,99,0.2,0.3,1
2026,1,15,21,60,?9?9?9?9,-13.6,-17.2,75,97800,9999,9999,9999,0,0,0,999999,999999,999999,9999,329,2.85,10,10,9999,99999,9,999999999,999,0.999,0.001,99,0.2,0.2,1
2026,1,15,22,60,?9?9?9?9,-13.6,-17.2,75,97810,9999,9999,9999,0,0,0,999999,999999,999999,9999,315,2.33,10,10,9999,99999,9,999999999,999,0.999,0.002,99,0.2,0.3,1
2026,1,15,23,60,?9?9?9?9,-13.9,-17.2,76,97790,9999,9999,9999,0,0,0,999999,999999,999999,9999,325,3.12,10,10,9999,99999,9,999999999,999,0.999,0.001,99,0.2,0.1,1
2026,1,15,24,60,?9?9?9?9,-14.0,-17.2,77,97690,9999,9999,9999,0,0,0,999999,999999,999999,9999,337,3.7,10,10,9999,99999,9,999999999,999,0.999,0.001,99,0.2,0.2,1
2026,1,16,1,60,?9?9?9?9,-14.1,-17.4,76,97720,9999,9999,9999,0,0,0,999999,999999,999999,9999,329,3.32,10,10,9999,99999,9,999999999,999,0.999,0.001,99,0.2,0.1,1
2026,1,16,2,60,?9?9?9?9,-15.1,-18.4,76,97780,9999,9999,9999,0,0,0,999999,999999,999999,9999,318,3.54,10,10,9999,99999,9,999999999,999,0.999,0.001,99,0.2,0.1,1
2026,1,16,3,60,?9?9?9?9,-15.4,-18.8,75,97840,9999,9999,9999,0,0,0,999999,999999,999999,9999,327,3.44,10,10,9999,99999,9,999999999,999,0.999,0.0,99,0.2,0.0,0
2026,1,16,4,60,?9?9?9?9,-15.2,-18.7,75,97880,9999,9999,9999,0,0,0,999999,999999,999999,9999,330,3.7,10,10,9999,99999,9,999999999,999,0.999,0.0,99,0.2,0.0,0
2026,1,16,5,60,?9?9?9?9,-15.2,-19.0,73,97880,9999,9999,9999,0,0,0,999999,999999,999999,9999,330,4.57,10,10,9999,99999,9,999999999,999,0.999,0.001,99,0.2,0.1,1
2026,1,16,6,60,?9?9?9?9,-15.4,-19.4,72,97880,9999,9999,9999,0,0,0,999999,999999,999999,9999,332,5.48,10,10,9999,99999,9,999999999,999,0.999,0.001,99,0.2,0.1,1
2026,1,16,7,60,?9?9?9?9,-15.7,-19.8,71,97950,9999,9999,9999,0,0,0,999999,999999,999999,9999,335,5.48,10,10,9999,99999,9,999999999,999,0.999,0.0,99,0.2,0.0,0
2026,1,16,8,60,?9?9?9?9,-16.1,-20.4,70,98050,9999,9999,9999,0,0,0,999999,999999,999999,9999,324,4.62,10,10,9999,99999,9,999999999,999,0.999,0.0,99,0.2,0.0,0
2026,1,16,9,60,?9?9?9?9,-16.1,-20.6,68,98120,9999,9999,9999,3,0,3,999999,999999,999999,9999,325,4.84,10,10,9999,99999,9,999999999,999,0.999,0.001,99,0.2,0.1,1
2026,1,16,10,60,?9?9?9?9,-16.0,-21.2,64,98210,9999,9999,9999,46,23,43,999999,999999,999999,9999,322,4.38,9,9,9999,99999,9,999999999,999,0.999,0.0,99,0.2,0.0,0
2026,1,16,11,60,?9?9?9?9,-15.6,-22.5,55,98310,9999,9999,9999,156,193,108,999999,999999,999999,9999,316,4.31,6,6,9999,99999,9,999999999,999,0.999,0.0,99,0.2,0.0,0
2026,1,16,12,60,?9?9?9?9,-14.6,-22.9,49,98390,9999,9999,9999,331,736,86,999999,999999,999999,9999,312,3.68,1,1,9999,99999,9,999999999,999,0.999,0.0,99,0.2,0.0,0
2026,1,16,13,60,?9?9?9?9,-13.1,-22.8,44,98490,9999,9999,9999,392,796,92,999999,999999,999999,9999,299,2.75,0,0,9999,99999,9,999999999,999,0.999,0.0,99,0.2,0.0,0
2026,1,16,14,60,?9?9?9?9,-11.9,-21.5,45,98630,9999,9999,9999,409,885,75,999999,999999,999999,9999,289,2.96,0,0,9999,99999,9,999999999,999,0.999,0.0,99,0.2,0.0,0
2026,1,16,15,60,?9?9?9?9,-10.5,-20.9,42,98780,9999,9999,9999,354,848,70,999999,999999,999999,9999,290,2.39,0,0,9999,99999,9,999999999,999,0.999,0.0,99,0.2,0.0,0
2026,1,16,16,60,?9?9?9?9,-10.4,-20.0,45,98940,9999,9999,9999,250,753,60,999999,999999,999999,9999,286,1.87,0,0,9999,99999,9,999999999,999,0.999,0.0,99,0.2,0.0,0
2026,1,16,17,60,?9?9?9?9,-12.8,-20.5,53,99020,9999,9999,9999,114,572,37,999999,999999,999999,9999,277,0.81,0,0,9999,99999,9,999999999,999,0.999,0.0,99,0.2,0.0,0
2026,1,16,18,60,?9?9?9?9,-16.4,-21.5,64,99200,9999,9999,9999,9,83,5,999999,999999,999999,9999,232,2.1,10,10,9999,99999,9,999999999,999,0.999,0.0,99,0.2,0.0,0
2026,1,16,19,60,?9?9?9?9,-17.8,-21.9,70,99310,9999,9999,9999,0,0,0,999999,999999,999999,9999,261,0.96,7,7,9999,99999,9,999999999,999,0.999,0.0,99,0.2,0.0,0
2026,1,16,20,60,?9?9?9?9,-18.0,-20.6,80,99450,9999,9999,9999,0,0,0,999999,999999,999999,9999,212,2.25,0,0,9999,99999,9,999999999,999,0.999,0.0,99,0.2,0.0,0
2026,1,16,21,60,?9?9?9?9,-20.2,-22.4,83,99470,9999,9999,9999,0,0,0,999999,999999,999999,9999,220,1.49,7,7,9999,99999,9,999999999,999,0.999,0.0,99,0.2,0.0,0
2026,1,16,22,60,?9?9?9?9,-21.0,-22.8,86,99530,9999,9999,9999,0,0,0,999999,999999,999999,9999,235,1.04,0,0,9999,99999,9,999999999,999,0.999,0.0,99,0.2,0.0,0
2026,1,16,23,60,?9?9?9?9,-21.5,-23.2,86,99610,9999,9999,9999,0,0,0,999999,999999,999999,9999,243,1.01,10,10,9999,99999,9,999999999,999,0.999,0.0,99,0.2,0.0,0
2026,1,16,24,60,?9?9?9?9,-21.0,-22.8,86,99670,9999,9999,9999,0,0,0,999999,999999,999999,9999,180,0.3,10,10,9999,99999,9,999999999,999,0.999,0.0,99,0.2,0.0,0
2026,1,17,1,60,?9?9?9?9,-19.3,-21.4,83,99800,9999,9999,9999,0,0,0,999999,999999,999999,9999,153,1.57,10,10,9999,99999,9,999999999,999,0.999,0.0,99,0.2,0.0,0
2026,1,17,2,60,?9?9?9?9,-18.5,-20.2,86,99830,9999,9999,9999,0,0,0,999999,999999,999999,9999,39,0.96,10,10,9999,99999,9,999999999,999,0.999,0.001,99,0.2,0.1,1
2026,1,17,3,60,?9?9?9?9,-18.0,-20.1,84,99830,9999,9999,9999,0,0,0,999999,999999,999999,9999,22,1.08,10,10,9999,99999,9,999999999,999,0.999,0.001,99,0.2,0.1,1
2026,1,17,4,60,?9?9?9?9,-19.1,-21.5,81,99840,9999,9999,9999,0,0,0,999999,999999,999999,9999,36,1.86,10,10,9999,99999,9,999999999,999,0.999,0.0,99,0.2,0.0,0
2026,1,17,5,60,?9?9?9?9,-18.0,-20.4,81,99810,9999,9999,9999,0,0,0,999999,999999,999999,9999,38,2.21,8,8,9999,99999,9,999999999,999,0.999,0.0,99,0.2,0.0,0
2026,1,17,6,60,?9?9?9?9,-17.9,-20.3,81,99760,9999,9999,9999,0,0,0,999999,999999,999999,9999,37,2.43,5,5,9999,99999,9,999999999,999,0.999,0.0,99,0.2,0.0,0
2026,1,17,7,60,?9?9?9?9,-18.4,-20.9,80,99740,9999,9999,9999,0,0,0,999999,999999,999999,9999,36,2.4,10,10,9999,99999,9,999999999,999,0.999,0.0,99,0.2,0.0,0
2026,1,17,8,60,?9?9?9?9,-17.0,-19.8,79,99730,9999,9999,9999,0,0,0,999999,999999,999999,9999,50,2.55,10,10,9999,99999,9,999999999,999,0.999,0.0,99,0.2,0.0,0
2026,1,17,9,60,?9?9?9?9,-15.9,-19.0,77,99750,9999,9999,9999,5,0,5,999999,999999,999999,9999,43,2.05,10,10,9999,99999,9,999999999,999,0.999,0.0,99,0.2,0.0,0
2026,1,17,10,60,?9?9?9?9,-14.4,-18.1,73,99760,9999,9999,9999,56,15,54,999999,999999,999999,9999,33,1.84,10,10,9999,99999,9,999999999,999,0.999,0.0,99,0.2,0.0,0
2026,1,17,11,60,?9?9?9?9,-12.7,-17.1,69,99760,9999,9999,9999,152,104,126,999999,999999,999999,9999,52,1.64,10,10,9999,99999,9,999999999,999,0.999,0.0,99,0.2,0.0,0
2026,1,17,12,60,?9?9?9?9,-10.8,-15.9,66,99750,9999,9999,9999,247,209,177,999999,999999,999999,9999,75,1.5,10,10,9999,99999,9,999999999,999,0.999,0.0,99,0.2,0.0,0
2026,1,17,13,60,?9?9?9?9,-9.6,-14.4,68,99650,9999,9999,9999,196,42,180,999999,999999,999999,9999,76,1.44,10,10,9999,99999,9,999999999,999,0.999,0.0,99,0.2,0.0,0
2026,1,17,14,60,?9?9?9?9,-9.4,-13.4,72,99590,9999,9999,9999,268,94,232,999999,999999,999999,9999,83,1.71,10,10,9999,99999,9,999999999,999,0.999,0.0,99,0.2,0.0,0
2026,1,17,15,60,?9?9?9?9,-8.7,-12.4,74,99510,9999,9999,9999,181,24,173,999999,999999,999999,9999,81,1.67,10,10,9999,99999,9,999999999,999,0.999,0.001,99,0.2,0.1,1
2026,1,17,16,60,?9?9?9?9,-8.4,-11.5,78,99480,9999,9999,9999,105,12,102,999999,999999,999999,9999,78,1.48,10,10,9999,99999,9,999999999,999,0.999,0.001,99,0.2,0.2,1
2026,1,17,17,60,?9?9?9?9,-8.2,-10.9,81,99500,9999,9999,9999,45,0,45,999999,999999,999999,9999,79,0.76,10,10,9999,99999,9,999999999,999,0.999,0.001,99,0.2,0.1,1
2026,1,17,18,60,?9?9?9?9,-8.5,-10.4,86,99510,9999,9999,9999,3,0,3,999999,999999,999999,9999,77,1.29,10,10,9999,99999,9,999999999,999,0.999,0.001,99,0.2,0.0,0
2026,1,17,19,60,?9?9?9?9,-8.4,-10.0,88,99510,9999,9999,9999,0,0,0,999999,999999,999999,9999,61,1.03,10,10,9999,99999,9,999999999,999,0.999,0.0,99,0.2,0.0,0
2026,1,17,20,60,?9?9?9?9,-8.3,-9.7,90,99500,9999,9999,9999,0,0,0,999999,999999,999999,9999,67,1.25,10,10,9999,99999,9,999999999,999,0.999,0.001,99,0.2,0.1,1
2026,1,17,21,60,?9?9?9?9,-8.1,-9.4,90,99470,9999,9999,9999,0,0,0,999999,999999,999999,9999,77,1.33,10,10,9999,99999,9,999999999,999,0.999,0.0,99,0.2,0.0,0
2026,1,17,22,60,?9?9?9?9,-7.8,-8.9,91,99440,9999,9999,9999,0,0,0,999999,999999,999999,9999,96,0.96,10,10,9999,99999,9,999999999,999,0.999,0.0,99,0.2,0.0,0
2026,1,17,23,60,?9?9?9?9,-7.4,-8.4,93,99410,9999,9999,9999,0,0,0,999999,999999,999999,9999,118,1.3,10,10,9999,99999,9,999999999,999,0.999,0.0,99,0.2,0.0,0
2026,1,17,24,60,?9?9?9?9,-6.9,-7.7,94,99380,9999,9999,9999,0,0,0,999999,999999,999999,9999,140,1.63,10,10,9999,99999,9,999999999,999,0.999,0.0,99,0.2,0.0,0
2026,1,18,1,60,?9?9?9?9,-6.1,-6.9,94,99380,9999,9999,9999,0,0,0,999999,999999,999999,9999,169,2.34,10,10,9999,99999,9,999999999,999,0.999,0.0,99,0.2,0.0,0
2026,1,18,2,60,?9?9?9?9,-5.8,-6.6,94,99320,9999,9999,9999,0,0,0,999999,999999,999999,9999,184,2.76,10,10,9999,99999,9,999999999,999,0.999,0.0,99,0.2,0.0,0
2026,1,18,3,60,?9?9?9?9,-5.2,-6.2,93,99300,9999,9999,9999,0,0,0,999999,999999,999999,9999,190,3.86,10,10,9999,99999,9,999999999,999,0.999,0.0,99,0.2,0.0,0
2026,1,18,4,60,?9?9?9?9,-5.1,-6.2,92,99280,9999,9999,9999,0,0,0,999999,999999,999999,9999,196,4.37,9,9,9999,99999,9,999999999,999,0.999,0.0,99,0.2,0.0,0
2026,1,18,5,60,?9?9?9?9,-4.3,-6.3,86,99230,9999,9999,9999,0,0,0,999999,999999,999999,9999,205,5.57,10,10,9999,99999,9,999999999,999,0.999,0.0,99,0.2,0.0,0
2026,1,18,6,60,?9?9?9?9,-3.7,-6.6,80,99230,9999,9999,9999,0,0,0,999999,999999,999999,9999,202,6.13,10,10,9999,99999,9,999999999,999,0.999,0.0,99,0.2,0.0,0
2026,1,18,7,60,?9?9?9?9,-4.2,-7.7,77,99220,9999,9999,9999,0,0,0,999999,999999,999999,9999,204,6.04,10,10,9999,99999,9,999999999,999,0.999,0.0,99,0.2,0.0,0
2026,1,18,8,60,?9?9?9?9,-4.5,-8.4,74,99270,9999,9999,9999,0,0,0,999999,999999,999999,9999,207,6.08,10,10,9999,99999,9,999999999,999,0.999,0.0,99,0.2,0.0,0
2026,1,18,9,60,?9?9?9?9,-4.8,-8.9,74,99320,9999,9999,9999,3,0,3,999999,999999,999999,9999,209,5.95,10,10,9999,99999,9,999999999,999,0.999,0.0,99,0.2,0.0,0
2026,1,18,10,60,?9?9?9?9,-5.2,-9.1,73,99370,9999,9999,9999,71,75,61,999999,999999,999999,9999,210,5.56,10,10,9999,99999,9,999999999,999,0.999,0.0,99,0.2,0.0,0
2026,1,18,11,60,?9?9?9?9,-5.2,-9.5,72,99440,9999,9999,9999,173,257,108,999999,999999,999999,9999,205,5.28,8,8,9999,99999,9,999999999,999,0.999,0.0,99,0.2,0.0,0
2026,1,18,12,60,?9?9?9?9,-5.0,-9.8,69,99460,9999,9999,9999,250,310,145,999999,999999,999999,9999,210,5.67,4,4,9999,99999,9,999999999,999,0.999,0.0,99,0.2,0.0,0
2026,1,18,13,60,?9?9?9?9,-4.4,-9.5,68,99460,9999,9999,9999,371,656,120,999999,999999,999999,9999,220,5.58,3,3,9999,99999,9,999999999,999,0.999,0.0,99,0.2,0.0,0
2026,1,18,14,60,?9?9?9?9,-3.7,-9.2,65,99430,9999,9999,9999,376,682,114,999999,999999,999999,9999,226,4.88,6,6,9999,99999,9,999999999,999,0.999,0.0,99,0.2,0.0,0
2026,1,18,15,60,?9?9?9?9,-3.2,-8.9,64,99430,9999,9999,9999,303,512,128,999999,999999,999999,9999,225,3.96,7,7,9999,99999,9,999999999,999,0.999,0.0,99,0.2,0.0,0
2026,1,18,16,60,?9?9?9?9,-3.5,-8.7,67,99380,9999,9999,9999,201,355,109,999999,999999,999999,9999,202,2.69,3,3,9999,99999,9,999999999,999,0.999,0.0,99,0.2,0.0,0
2026,1,18,17,60,?9?9?9?9,-5.4,-8.6,78,99420,9999,9999,9999,109,437,47,999999,999999,999999,9999,186,2.72,0,0,9999,99999,9,999999999,999,0.999,0.0,99,0.2,0.0,0
2026,1,18,18,60,?9?9?9?9,-7.4,-9.4,86,99460,9999,9999,9999,10,77,6,999999,999999,999999,9999,199,3.43,2,2,9999,99999,9,999999999,999,0.999,0.0,99,0.2,0.0,0
2026,1,18,19,60,?9?9?9?9,-8.7,-10.4,87,99420,9999,9999,9999,0,0,0,999999,999999,999999,9999,217,2.25,7,7,9999,99999,9,999999999,999,0.999,0.0,99,0.2,0.0,0
2026,1,18,20,60,?9?9?9?9,-9.0,-10.6,88,99410,9999,9999,9999,0,0,0,999999,999999,999999,9999,215,1.76,3,3,9999,99999,9,999999999,999,0.999,0.0,99,0.2,0.0,0
2026,1,18,21,60,?9?9?9?9,-9.8,-11.5,87,99370,9999,9999,9999,0,0,0,999999,999999,999999,9999,270,1.05,1,1,9999,99999,9,999999999,999,0.999,0.0,99,0.2,0.0,0
2026,1,18,22,60,?9?9?9?9,-11.1,-12.6,89,99310,9999,9999,9999,0,0,0,999999,999999,999999,9999,308,1.39,0,0,9999,99999,9,999999999,999,0.999,0.0,99,0.2,0.0,0
2026,1,18,23,60,?9?9?9?9,-12.2,-13.5,90,99250,9999,9999,9999,0,0,0,999999,999999,999999,9999,285,0.98,0,0,9999,99999,9,999999999,999,0.999,0.0,99,0.2,0.0,0
2026,1,18,24,60,?9?9?9?9,-13.4,-14.9,88,99180,9999,9999,9999,0,0,0,999999,999999,999999,9999,299,1.77,1,1,9999,99999,9,999999999,999,0.999,0.0,99,0.2,0.0,0
2026,1,19,1,60,?9?9?9?9,-13.9,-15.6,88,99110,9999,9999,9999,0,0,0,999999,999999,999999,9999,329,1.64,4,4,9999,99999,9,999999999,999,0.999,0.0,99,0.2,0.0,0
2026,1,19,2,60,?9?9?9?9,-13.6,-15.2,87,99010,9999,9999,9999,0,0,0,999999,999999,999999,9999,333,2.42,3,3,9999,99999,9,999999999,999,0.999,0.0,99,0.2,0.0,0
2026,1,19,3,60,?9?9?9?9,-14.6,-16.2,87,99000,9999,9999,9999,0,0,0,999999,999999,999999,9999,342,1.74,5,5,9999,99999,9,999999999,999,0.999,0.0,99,0.2,0.0,0
2026,1,19,4,60,?9?9?9?9,-14.8,-16.2,89,98990,9999,9999,9999,0,0,0,999999,999999,999999,9999,352,1.06,9,9,9999,99999,9,999999999,999,0.999,0.0,99,0.2,0.0,0
2026,1,19,5,60,?9?9?9?9,-14.4,-16.0,88,98960,9999,9999,9999,0,0,0,999999,999999,999999,9999,360,1.3,10,10,9999,99999,9,999999999,999,0.999,0.0,99,0.2,0.0,0
2026,1,19,6,60,?9?9?9?9,-14.0,-15.6,88,98930,9999,9999,9999,0,0,0,999999,999999,999999,9999,10,0.86,10,10,9999,99999,9,999999999,999,0.999,0.0,99,0.2,0.0,0
2026,1,19,7,60,?9?9?9?9,-13.3,-14.9,88,98950,9999,9999,9999,0,0,0,999999,999999,999999,9999,6,0.45,10,10,9999,99999,9,999999999,999,0.999,0.0,99,0.2,0.0,0
2026,1,19,8,60,?9?9?9?9,-11.3,-12.7,89,98920,9999,9999,9999,0,0,0,999999,999999,999999,9999,108,0.47,10,10,9999,99999,9,999999999,999,0.999,0.0,99,0.2,0.0,0
2026,1,19,9,60,?9?9?9?9,-10.9,-12.2,90,98910,9999,9999,9999,5,0,5,999999,999999,999999,9999,141,0.96,10,10,9999,99999,9,999999999,999,0.999,0.0,99,0.2,0.0,0
2026,1,19,10,60,?9?9?9?9,-10.3,-11.6,90,98870,9999,9999,9999,55,7,54,999999,999999,999999,9999,158,0.54,10,10,9999,99999,9,999999999,999,0.999,0.0,99,0.2,0.0,0
2026,1,19,11,60,?9?9?9?9,-9.4,-11.3,86,98870,9999,9999,9999,137,16,133,999999,999999,999999,9999,171,0.91,10,10,9999,99999,9,999999999,999,0.999,0.0,99,0.2,0.0,0
2026,1,19,12,60,?9?9?9?9,-8.3,-10.9,82,98830,9999,9999,9999,198,26,189,999999,999999,999999,9999,180,1.95,10,10,9999,99999,9,999999999,999,0.999,0.001,99,0.2,0.1,1
2026,1,19,13,60,?9?9?9?9,-7.8,-10.4,82,98750,9999,9999,9999,201,18,194,999999,999999,999999,9999,181,2.65,10,10,9999,99999,9,999999999,999,0.999,0.001,99,0.2,0.1,1
2026,1,19,14,60,?9?9?9?9,-7.2,-9.6,84,98670,9999,9999,9999,162,8,159,999999,999999,999999,9999,183,3.05,10,10,9999,99999,9,999999999,999,0.999,0.001,99,0.2,0.1,1
2026,1,19,15,60,?9?9?9?9,-6.9,-9.1,85,98620,9999,9999,9999,194,20,187,999999,999999,999999,9999,185,3.16,10,10,9999,99999,9,999999999,999,0.999,0.0,99,0.2,0.0,0
2026,1,19,16,60,?9?9?9?9,-6.9,-8.7,87,98620,9999,9999,9999,136,11,133,999999,999999,999999,9999,178,3.05,10,10,9999,99999,9,999999999,999,0.999,0.0,99,0.2,0.0,0
2026,1,19,17,60,?9?9?9?9,-6.8,-8.1,91,98640,9999,9999,9999,52,0,52,999999,999999,999999,9999,176,3.01,10,10,9999,99999,9,999999999,999,0.999,0.001,99,0.2,0.1,1
2026,1,19,18,60,?9?9?9?9,-6.7,-8.9,84,98660,9999,9999,9999,6,0,6,999999,999999,999999,9999,194,4.01,10,10,9999,99999,9,999999999,999,0.999,0.001,99,0.2,0.1,1
2026,1,19,19,60,?9?9?9?9,-7.2,-9.5,83,98660,9999,9999,9999,0,0,0,999999,999999,999999,9999,202,4.62,10,10,9999,99999,9,999999999,999,0.999,0.001,99,0.2,0.1,1
2026,1,19,20,60,?9?9?9?9,-7.2,-9.1,86,98650,9999,9999,9999,0,0,0,999999,999999,999999,9999,199,4.35,10,10,9999,99999,9,999999999,999,0.999,0.001,99,0.2,0.1,1
2026,1,19,21,60,?9?9?9?9,-7.4,-9.1,88,98630,9999,9999,9999,0,0,0,999999,999999,999999,9999,192,3.83,10,10,9999,99999,9,999999999,999,0.999,0.001,99,0.2,0.2,1
2026,1,19,22,60,?9?9?9?9,-7.6,-10.1,82,98580,9999,9999,9999,0,0,0,999999,999999,999999,9999,195,4.56,10,10,9999,99999,9,999999999,999,0.999,0.001,99,0.2,0.2,1
2026,1,19,23,60,?9?9?9?9,-8.0,-11.9,74,98580,9999,9999,9999,0,0,0,999999,999999,999999,9999,214,5.15,10,10,9999,99999,9,999999999,999,0.999,0.001,99,0.2,0.1,1
2026,1,19,24,60,?9?9?9?9,-7.8,-11.2,76,98600,9999,9999,9999,0,0,0,999999,999999,999999,9999,221,5.67,7,7,9999,99999,9,999999999,999,0.999,0.001,99,0.2,0.1,1
2026,1,20,1,60,?9?9?9?9,-8.9,-12.2,77,98660,9999,9999,9999,0,0,0,999999,999999,999999,9999,217,5.39,10,10,9999,99999,9,999999999,999,0.999,0.001,99,0.2,0.1,1
2026,1,20,2,60,?9?9?9?9,-8.9,-12.4,75,98690,9999,9999,9999,0,0,0,999999,999999,999999,9999,229,5.63,9,9,9999,99999,9,999999999,999,0.999,0.001,99,0.2,0.1,1
2026,1,20,3,60,?9?9?9?9,-9.2,-13.3,72,98760,9999,9999,9999,0,0,0,999999,999999,999999,9999,235,5.09,0,0,9999,99999,9,999999999,999,0.999,0.0,99,0.2,0.0,0
2026,1,20,4,60,?9?9?9?9,-10.3,-14.1,74,98840,9999,9999,9999,0,0,0,999999,999999,999999,9999,233,4.39,2,2,9999,99999,9,999999999,999,0.999,0.0,99,0.2,0.0,0
2026,1,20,5,60,?9?9?9?9,-10.9,-14.3,76,98910,9999,9999,9999,0,0,0,999999,999999,999999,9999,242,3.74,4,4,9999,99999,9,999999999,999,0.999,0.0,99,0.2,0.0,0
2026,1,20,6,60,?9?9?9?9,-11.5,-16.3,68,99070,9999,9999,9999,0,0,0,999999,999999,999999,9999,258,4.96,3,3,9999,99999,9,999999999,999,0.999,0.0,99,0.2,0.0,0
2026,1,20,7,60,?9?9?9?9,-13.6,-18.4,67,99260,9999,9999,9999,0,0,0,999999,999999,999999,9999,266,4.06,10,10,9999,99999,9,999999999,999,0.999,0.0,99,0.2,0.0,0
2026,1,20,8,60,?9?9?9?9,-16.1,-21.4,64,99440,9999,9999,9999,0,0,0,999999,999999,999999,9999,283,4.62,0,0,9999,99999,9,999999999,999,0.999,0.0,99,0.2,0.0,0
2026,1,20,9,60,?9?9?9?9,-18.1,-23.4,63,99590,9999,9999,9999,9,80,5,999999,999999,999999,9999,280,4.62,8,8,9999,99999,9,999999999,999,0.999,0.0,99,0.2,0.0,0
2026,1,20,10,60,?9?9?9?9,-18.9,-24.9,59,99710,9999,9999,9999,102,325,57,999999,999999,999999,9999,283,4.35,10,10,9999,99999,9,999999999,999,0.999,0.0,99,0.2,0.0,0
2026,1,20,11,60,?9?9?9?9,-19.0,-25.4,57,99810,9999,9999,9999,200,267,131,999999,999999,999999,9999,279,3.75,10,10,9999,99999,9,999999999,999,0.999,0.0,99,0.2,0.0,0
2026,1,20,12,60,?9?9?9?9,-18.0,-25.6,51,99850,9999,9999,9999,318,511,142,999999,999999,999999,9999,267,3.41,6,6,9999,99999,9,999999999,999,0.999,0.0,99,0.2,0.0,0
2026,1,20,13,60,?9?9?9?9,-16.7,-25.1,48,99850,9999,9999,9999,394,694,124,999999,999999,999999,9999,248,3.03,6,6,9999,99999,9,999999999,999,0.999,0.0,99,0.2,0.0,0
2026,1,20,14,60,?9?9?9?9,-14.4,-24.0,44,99800,9999,9999,9999,405,757,109,999999,999999,999999,9999,238,3.59,4,4,9999,99999,9,999999999,999,0.999,0.0,99,0.2,0.0,0
2026,1,20,15,60,?9?9?9?9,-13.7,-23.2,44,99800,9999,9999,9999,361,793,84,999999,999999,999999,9999,246,4.99,10,10,9999,99999,9,999999999,999,0.999,0.0,99,0.2,0.0,0
2026,1,20,16,60,?9?9?9?9,-14.0,-21.8,52,99840,9999,9999,9999,225,416,114,999999,999999,999999,9999,229,4.57,10,10,9999,99999,9,999999999,999,0.999,0.0,99,0.2,0.0,0
2026,1,20,17,60,?9?9?9?9,-14.4,-20.5,60,99880,9999,9999,9999,86,67,76,999999,999999,999999,9999,222,3.72,10,10,9999,99999,9,999999999,999,0.999,0.0,99,0.2,0.0,0
2026,1,20,18,60,?9?9?9?9,-15.4,-20.5,65,99910,9999,9999,9999,10,18,9,999999,999999,999999,9999,231,3.27,6,6,9999,99999,9,999999999,999,0.999,0.0,99,0.2,0.0,0
2026,1,20,19,60,?9?9?9?9,-16.3,-21.0,67,100010,9999,9999,9999,0,0,0,999999,999999,999999,9999,243,2.57,9,9,9999,99999,9,999999999,999,0.999,0.0,99,0.2,0.0,0
2026,1,20,20,60,?9?9?9?9,-16.5,-21.2,67,100100,9999,9999,9999,0,0,0,999999,999999,999999,9999,242,2.73,9,9,9999,99999,9,999999999,999,0.999,0.0,99,0.2,0.0,0
2026,1,20,21,60,?9?9?9?9,-18.4,-22.9,67,100160,9999,9999,9999,0,0,0,999999,999999,999999,9999,226,1.87,6,6,9999,99999,9,999999999,999,0.999,0.0,99,0.2,0.0,0
2026,1,20,22,60,?9?9?9?9,-19.7,-23.8,70,100200,9999,9999,9999,0,0,0,999999,999999,999999,9999,220,2.09,10,10,9999,99999,9,999999999,999,0.999,0.0,99,0.2,0.0,0
2026,1,20,23,60,?9?9?9?9,-18.8,-22.5,73,100240,9999,9999,9999,0,0,0,999999,999999,999999,9999,221,2.59,10,10,9999,99999,9,999999999,999,0.999,0.0,99,0.2,0.0,0
2026,1,20,24,60,?9?9?9?9,-18.1,-21.4,76,100250,9999,9999,9999,0,0,0,999999,999999,999999,9999,217,2.93,10,10,9999,99999,9,999999999,999,0.999,0.0,99,0.2,0.0,0
2026,1,21,1,60,?9?9?9?9,-16.8,-19.8,77,100270,9999,9999,9999,0,0,0,999999,999999,999999,9999,209,3.27,10,10,9999,99999,9,999999999,999,0.999,0.0,99,0.2,0.0,0
2026,1,21,2,60,?9?9?9?9,-16.1,-19.0,79,100240,9999,9999,9999,0,0,0,999999,999999,999999,9999,213,3.98,2,2,9999,99999,9,999999999,999,0.999,0.0,99,0.2,0.0,0
2026,1,21,3,60,?9?9?9?9,-15.7,-18.6,78,100280,9999,9999,9999,0,0,0,999999,999999,999999,9999,218,4.13,4,4,9999,99999,9,999999999,999,0.999,0.0,99,0.2,0.0,0
2026,1,21,4,60,?9?9?9?9,-15.8,-18.8,78,100320,9999,9999,9999,0,0,0,999999,999999,999999,9999,217,4.11,5,5,9999,99999,9,999999999,999,0.999,0.0,99,0.2,0.0,0
2026,1,21,5,60,?9?9?9?9,-16.2,-19.0,79,100390,9999,9999,9999,0,0,0,999999,999999,999999,9999,217,3.57,10,10,9999,99999,9,999999999,999,0.999,0.0,99,0.2,0.0,0
2026,1,21,6,60,?9?9?9?9,-16.3,-19.1,79,100410,9999,9999,9999,0,0,0,999999,999999,999999,9999,214,3.13,10,10,9999,99999,9,999999999,999,0.999,0.0,99,0.2,0.0,0
2026,1,21,7,60,?9?9?9?9,-16.0,-18.8,79,100420,9999,9999,9999,0,0,0,999999,999999,999999,9999,205,3.13,10,10,9999,99999,9,999999999,999,0.999,0.0,99,0.2,0.0,0
2026,1,21,8,60,?9?9?9?9,-15.4,-18.1,80,100490,9999,9999,9999,0,0,0,999999,999999,999999,9999,208,3.44,10,10,9999,99999,9,999999999,999,0.999,0.0,99,0.2,0.0,0
2026,1,21,9,60,?9?9?9?9,-15.2,-17.9,80,100510,9999,9999,9999,8,20,7,999999,999999,999999,9999,208,3.56,8,8,9999,99999,9,999999999,999,0.999,0.0,99,0.2,0.0,0
2026,1,21,10,60,?9?9?9?9,-14.2,-17.6,75,100510,9999,9999,9999,103,341,55,999999,999999,999999,9999,207,2.93,9,9,9999,99999,9,999999999,999,0.999,0.0,99,0.2,0.0,0
2026,1,21,11,60,?9?9?9?9,-13.0,-17.2,70,100500,9999,9999,9999,225,482,99,999999,999999,999999,9999,203,3.43,6,6,9999,99999,9,999999999,999,0.999,0.0,99,0.2,0.0,0
2026,1,21,12,60,?9?9?9?9,-11.8,-16.5,68,100470,9999,9999,9999,339,688,100,999999,999999,999999,9999,201,4.07,7,7,9999,99999,9,999999999,999,0.999,0.0,99,0.2,0.0,0
2026,1,21,13,60,?9?9?9?9,-10.9,-15.6,68,100410,9999,9999,9999,395,733,107,999999,999999,999999,9999,203,4.82,10,10,9999,99999,9,999999999,999,0.999,0.0,99,0.2,0.0,0
2026,1,21,14,60,?9?9?9?9,-9.7,-14.6,68,100350,9999,9999,9999,318,264,214,999999,999999,999999,9999,201,4.54,7,7,9999,99999,9,999999999,999,0.999,0.0,99,0.2,0.0,0
2026,1,21,15,60,?9?9?9?9,-8.9,-14.1,67,100230,9999,9999,9999,352,742,90,999999,999999,999999,9999,199,4.49,10,10,9999,99999,9,999999999,999,0.999,0.0,99,0.2,0.0,0
2026,1,21,16,60,?9?9?9?9,-8.8,-13.0,71,100170,9999,9999,9999,229,432,112,999999,999999,999999,9999,189,3.85,10,10,9999,99999,9,999999999,999,0.999,0.0,99,0.2,0.0,0
2026,1,21,17,60,?9?9?9?9,-8.8,-11.9,78,100120,9999,9999,9999,83,98,68,999999,999999,999999,9999,177,3.35,10,10,9999,99999,9,999999999,999,0.999,0.0,99,0.2,0.0,0
2026,1,21,18,60,?9?9?9?9,-8.8,-11.9,78,100090,9999,9999,9999,5,0,5,999999,999999,999999,9999,175,3.26,10,10,9999,99999,9,999999999,999,0.999,0.001,99,0.2,0.1,1
2026,1,21,19,60,?9?9?9?9,-8.9,-11.9,79,100040,9999,9999,9999,0,0,0,999999,999999,999999,9999,162,3.26,10,10,9999,99999,9,999999999,999,0.999,0.001,99,0.2,0.1,1
2026,1,21,20,60,?9?9?9?9,-9.3,-11.9,81,99950,9999,9999,9999,0,0,0,999999,999999,999999,9999,150,3.0,10,10,9999,99999,9,999999999,999,0.999,0.001,99,0.2,0.1,1
2026,1,21,21,60,?9?9?9?9,-9.4,-11.6,83,99870,9999,9999,9999,0,0,0,999999,999999,999999,9999,136,2.79,10,10,9999,99999,9,999999999,999,0.999,0.001,99,0.2,0.2,1
2026,1,21,22,60,?9?9?9?9,-9.4,-11.1,87,99760,9999,9999,9999,0,0,0,999999,999999,999999,9999,123,2.86,10,10,9999,99999,9,999999999,999,0.999,0.003,99,0.2,0.4,1
2026,1,21,23,60,?9?9?9?9,-9.2,-10.7,89,99640,9999,9999,9999,0,0,0,999999,999999,999999,9999,122,3.12,10,10,9999,99999,9,999999999,999,0.999,0.003,99,0.2,0.4,1
2026,1,21,24,60,?9?9?9?9,-9.0,-10.4,90,99530,9999,9999,9999,0,0,0,999999,999999,999999,9999,121,3.1,10,10,9999,99999,9,999999999,999,0.999,0.002,99,0.2,0.3,1
2026,1,22,1,60,?9?9?9?9,-8.6,-9.9,90,99420,9999,9999,9999,0,0,0,999999,999999,999999,9999,122,2.9,10,10,9999,99999,9,999999999,999,0.999,0.003,99,0.2,0.4,1
2026,1,22,2,60,?9?9?9?9,-8.8,-10.0,91,99280,9999,9999,9999,0,0,0,999999,999999,999999,9999,115,3.2,10,10,9999,99999,9,999999999,999,0.999,0.003,99,0.2,0.4,1
2026,1,22,3,60,?9?9?9?9,-8.3,-9.6,91,99150,9999,9999,9999,0,0,0,999999,999999,999999,9999,119,3.31,10,10,9999,99999,9,999999999,999,0.999,0.004,99,0.2,0.6,1
2026,1,22,4,60,?9?9?9?9,-7.9,-9.1,91,99030,9999,9999,9999,0,0,0,999999,999999,999999,9999,117,2.97,10,10,9999,99999,9,999999999,999,0.999,0.004,99,0.2,0.6,1
2026,1,22,5,60,?9?9?9?9,-7.5,-8.7,91,98910,9999,9999,9999,0,0,0,999999,999999,999999,9999,118,2.73,10,10,9999,99999,9,999999999,999,0.999,0.005,99,0.2,0.7,1
2026,1,22,6,60,?9?9?9?9,-7.1,-8.1,92,98830,9999,9999,9999,0,0,0,999999,999999,999999,9999,127,2.07,10,10,9999,99999,9,999999999,999,0.999,0.005,99,0.2,0.7,1
2026,1,22,7,60,?9?9?9?9,-6.4,-7.4,93,98770,9999,9999,9999,0,0,0,999999,999999,999999,9999,167,1.84,10,10,9999,99999,9,999999999,999,0.999,0.001,99,0.2,0.2,1
2026,1,22,8,60,?9?9?9?9,-7.9,-8.8,94,98820,9999,9999,9999,0,0,0,999999,999999,999999,9999,111,1.12,10,10,9999,99999,9,999999999,999,0.999,0.0,99,0.2,0.0,0
2026,1,22,9,60,?9?9?9?9,-7.2,-8.1,94,98800,9999,9999,9999,3,0,3,999999,999999,999999,9999,126,1.54,10,10,9999,99999,9,999999999,999,0.999,0.001,99,0.2,0.1,1
2026,1,22,10,60,?9?9?9?9,-5.2,-6.2,92,98770,9999,9999,9999,29,0,29,999999,999999,999999,9999,198,3.26,10,10,9999,99999,9,999999999,999,0.999,0.001,99,0.2,0.1,1
2026,1,22,11,60,?9?9?9?9,-3.4,-5.1,88,98750,9999,9999,9999,143,42,132,999999,999999,999999,9999,204,4.72,9,9,9999,99999,9,999999999,999,0.999,0.0,99,0.2,0.0,0
2026,1,22,12,60,?9?9?9?9,-2.3,-6.4,73,98730,9999,9999,9999,263,260,172,999999,999999,999999,9999,225,6.01,5,5,9999,99999,9,999999999,999,0.999,0.0,99,0.2,0.0,0
2026,1,22,13,60,?9?9?9?9,-1.8,-7.9,63,98710,9999,9999,9999,403,775,96,999999,999999,999999,9999,234,5.83,2,2,9999,99999,9,999999999,999,0.999,0.0,99,0.2,0.0,0
2026,1,22,14,60,?9?9?9?9,-2.0,-11.4,49,98750,9999,9999,9999,393,738,99,999999,999999,999999,9999,247,5.15,1,1,9999,99999,9,999999999,999,0.999,0.0,99,0.2,0.0,0
2026,1,22,15,60,?9?9?9?9,-1.7,-12.0,45,98760,9999,9999,9999,346,704,95,999999,999999,999999,9999,240,5.02,6,6,9999,99999,9,999999999,999,0.999,0.0,99,0.2,0.0,0
2026,1,22,16,60,?9?9?9?9,-2.5,-10.5,54,98810,9999,9999,9999,210,361,111,999999,999999,999999,9999,228,3.86,9,9,9999,99999,9,999999999,999,0.999,0.0,99,0.2,0.0,0
2026,1,22,17,60,?9?9?9?9,-3.7,-7.8,73,98860,9999,9999,9999,86,102,70,999999,999999,999999,9999,232,4.17,10,10,9999,99999,9,999999999,999,0.999,0.003,99,0.2,0.4,1
2026,1,22,18,60,?9?9?9?9,-4.7,-8.2,77,98930,9999,9999,9999,7,33,5,999999,999999,999999,9999,246,2.57,8,8,9999,99999,9,999999999,999,0.999,0.001,99,0.2,0.2,1
2026,1,22,19,60,?9?9?9?9,-6.2,-8.9,81,98970,9999,9999,9999,0,0,0,999999,999999,999999,9999,255,2.28,4,4,9999,99999,9,999999999,999,0.999,0.0,99,0.2,0.0,0
2026,1,22,20,60,?9?9?9?9,-7.2,-11.1,73,99070,9999,9999,9999,0,0,0,999999,999999,999999,9999,256,3.35,0,0,9999,99999,9,999999999,999,0.999,0.0,99,0.2,0.0,0
2026,1,22,21,60,?9?9?9?9,-9.6,-12.6,79,99120,9999,9999,9999,0,0,0,999999,999999,999999,9999,228,2.76,3,3,9999,99999,9,999999999,999,0.999,0.0,99,0.2,0.0,0
2026,1,22,22,60,?9?9?9?9,-11.2,-14.0,80,99160,9999,9999,9999,0,0,0,999999,999999,999999,9999,248,2.15,10,10,9999,99999,9,999999999,999,0.999,0.0,99,0.2,0.0,0
2026,1,22,23,60,?9?9?9?9,-11.1,-14.1,79,99150,9999,9999,9999,0,0,0,999999,999999,999999,9999,275,1.71,10,10,9999,99999,9,999999999,999,0.999,0.001,99,0.2,0.2,1
2026,1,22,24,60,?9?9?9?9,-11.6,-14.4,80,99180,9999,9999,9999,0,0,0,999999,999999,999999,9999,253,1.83,10,10,9999,99999,9,999999999,999,0.999,0.001,99,0.2,0.1,1
2026,1,23,1,60,?9?9?9?9,-11.2,-13.9,81,99210,9999,9999,9999,0,0,0,999999,999999,999999,9999,255,2.12,9,9,9999,99999,9,999999999,999,0.999,0.001,99,0.2,0.1,1
2026,1,23,2,60,?9?9?9?9,-11.4,-14.8,76,99220,9999,9999,9999,0,0,0,999999,999999,999999,9999,262,3.08,6,6,9999,99999,9,999999999,999,0.999,0.0,99,0.2,0.0,0
2026,1,23,3,60,?9?9?9?9,-12.6,-16.5,72,99260,9999,9999,9999,0,0,0,999999,999999,999999,9999,256,2.78,2,2,9999,99999,9,999999999,999,0.999,0.0,99,0.2,0.0,0
2026,1,23,4,60,?9?9?9?9,-13.2,-17.8,69,99280,9999,9999,9999,0,0,0,999999,999999,999999,9999,260,3.2,0,0,9999,99999,9,999999999,999,0.999,0.0,99,0.2,0.0,0
2026,1,23,5,60,?9?9?9?9,-14.3,-18.9,68,99300,9999,9999,9999,0,0,0,999999,999999,999999,9999,246,3.07,0,0,9999,99999,9,999999999,999,0.999,0.0,99,0.2,0.0,0
2026,1,23,6,60,?9?9?9?9,-15.9,-19.4,74,99310,9999,9999,9999,0,0,0,999999,999999,999999,9999,232,2.92,2,2,9999,99999,9,999999999,999,0.999,0.0,99,0.2,0.0,0
2026,1,23,7,60,?9?9?9?9,-16.5,-20.1,74,99320,9999,9999,9999,0,0,0,999999,999999,999999,9999,251,2.8,1,1,9999,99999,9,999999999,999,0.999,0.0,99,0.2,0.0,0
2026,1,23,8,60,?9?9?9?9,-16.1,-20.0,72,99380,9999,9999,9999,0,0,0,999999,999999,999999,9999,264,3.27,10,10,9999,99999,9,999999999,999,0.999,0.0,99,0.2,0.0,0
2026,1,23,9,60,?9?9?9?9,-15.8,-19.7,72,99480,9999,9999,9999,10,37,8,999999,999999,999999,9999,264,3.27,10,10,9999,99999,9,999999999,999,0.999,0.0,99,0.2,0.0,0
2026,1,23,10,60,?9?9?9?9,-14.2,-19.2,66,99560,9999,9999,9999,105,280,64,999999,999999,999999,9999,272,3.05,6,6,9999,99999,9,999999999,999,0.999,0.0,99,0.2,0.0,0
2026,1,23,11,60,?9?9?9?9,-13.4,-20.2,56,99600,9999,9999,9999,233,460,110,999999,999999,999999,9999,288,3.53,0,0,9999,99999,9,999999999,999,0.999,0.0,99,0.2,0.0,0
2026,1,23,12,60,?9?9?9?9,-13.2,-22.9,44,99650,9999,9999,9999,375,842,77,999999,999999,999999,9999,299,4.23,0,0,9999,99999,9,999999999,999,0.999,0.0,99,0.2,0.0,0
2026,1,23,13,60,?9?9?9?9,-13.2,-23.8,41,99640,9999,9999,9999,436,888,81,999999,999999,999999,9999,292,4.2,1,1,9999,99999,9,999999999,999,0.999,0.0,99,0.2,0.0,0
2026,1,23,14,60,?9?9?9?9,-12.9,-22.9,43,99670,9999,9999,9999,437,873,86,999999,999999,999999,9999,283,4.73,4,4,9999,99999,9,999999999,999,0.999,0.0,99,0.2,0.0,0
2026,1,23,15,60,?9?9?9?9,-13.0,-23.3,42,99690,9999,9999,9999,365,724,104,999999,999999,999999,9999,294,4.27,5,5,9999,99999,9,999999999,999,0.999,0.0,99,0.2,0.0,0
2026,1,23,16,60,?9?9?9?9,-13.8,-23.5,44,99780,9999,9999,9999,259,607,90,999999,999999,999999,9999,298,4.36,6,6,9999,99999,9,999999999,999,0.999,0.0,99,0.2,0.0,0
2026,1,23,17,60,?9?9?9?9,-15.0,-24.0,46,99860,9999,9999,9999,125,392,62,999999,999999,999999,9999,308,4.2,2,2,9999,99999,9,999999999,999,0.999,0.0,99,0.2,0.0,0
2026,1,23,18,60,?9?9?9?9,-16.9,-24.1,53,99940,9999,9999,9999,18,162,8,999999,999999,999999,9999,315,4.07,1,1,9999,99999,9,999999999,999,0.999,0.0,99,0.2,0.0,0
2026,1,23,19,60,?9?9?9?9,-18.0,-24.7,56,100020,9999,9999,9999,0,0,0,999999,999999,999999,9999,315,4.63,1,1,9999,99999,9,999999999,999,0.999,0.0,99,0.2,0.0,0
2026,1,23,20,60,?9?9?9?9,-18.5,-24.9,57,100160,9999,9999,9999,0,0,0,999999,999999,999999,9999,301,4.04,0,0,9999,99999,9,999999999,999,0.999,0.0,99,0.2,0.0,0
2026,1,23,21,60,?9?9?9?9,-19.1,-25.8,56,100230,9999,9999,9999,0,0,0,999999,999999,999999,9999,299,4.41,0,0,9999,99999,9,999999999,999,0.999,0.0,99,0.2,0.0,0
2026,1,23,22,60,?9?9?9?9,-20.4,-26.7,57,100350,9999,9999,9999,0,0,0,999999,999999,999999,9999,298,4.21,0,0,9999,99999,9,999999999,999,0.999,0.0,99,0.2,0.0,0
2026,1,23,23,60,?9?9?9?9,-21.8,-27.3,61,100410,9999,9999,9999,0,0,0,999999,999999,999999,9999,305,4.74,0,0,9999,99999,9,999999999,999,0.999,0.0,99,0.2,0.0,0
2026,1,23,24,60,?9?9?9?9,-23.2,-28.6,61,100540,9999,9999,9999,0,0,0,999999,999999,999999,9999,308,5.24,1,1,9999,99999,9,999999999,999,0.999,0.0,99,0.2,0.0,0
2026,1,24,1,60,?9?9?9?9,-24.3,-29.5,62,100660,9999,9999,9999,0,0,0,999999,999999,999999,9999,311,5.1,1,1,9999,99999,9,999999999,999,0.999,0.0,99,0.2,0.0,0
2026,1,24,2,60,?9?9?9?9,-24.4,-30.0,60,100790,9999,9999,9999,0,0,0,999999,999999,999999,9999,299,4.23,3,3,9999,99999,9,999999999,999,0.999,0.0,99,0.2,0.0,0
2026,1,24,3,60,?9?9?9?9,-25.2,-30.8,60,100920,9999,9999,9999,0,0,0,999999,999999,999999,9999,298,3.67,5,5,9999,99999,9,999999999,999,0.999,0.0,99,0.2,0.0,0
2026,1,24,4,60,?9?9?9?9,-26.3,-31.5,62,101040,9999,9999,9999,0,0,0,999999,999999,999999,9999,297,3.13,1,1,9999,99999,9,999999999,999,0.999,0.0,99,0.2,0.0,0
2026,1,24,5,60,?9?9?9?9,-27.0,-32.2,62,101110,9999,9999,9999,0,0,0,999999,999999,999999,9999,295,3.13,1,1,9999,99999,9,999999999,999,0.999,0.0,99,0.2,0.0,0
2026,1,24,6,60,?9?9?9?9,-27.6,-32.6,63,101180,9999,9999,9999,0,0,0,999999,999999,999999,9999,293,2.6,0,0,9999,99999,9,999999999,999,0.999,0.0,99,0.2,0.0,0
2026,1,24,7,60,?9?9?9?9,-29.0,-33.5,65,101260,9999,9999,9999,0,0,0,999999,999999,999999,9999,267,1.75,0,0,9999,99999,9,999999999,999,0.999,0.0,99,0.2,0.0,0
2026,1,24,8,60,?9?9?9?9,-29.0,-33.5,65,101390,9999,9999,9999,0,0,0,999999,999999,999999,9999,265,2.31,0,0,9999,99999,9,999999999,999,0.999,0.0,99,0.2,0.0,0
2026,1,24,9,60,?9?9?9?9,-29.2,-33.5,66,101500,9999,9999,9999,13,109,7,999999,999999,999999,9999,257,2.46,0,0,9999,99999,9,999999999,999,0.999,0.0,99,0.2,0.0,0
2026,1,24,10,60,?9?9?9?9,-27.4,-33.3,57,101560,9999,9999,9999,130,577,44,999999,999999,999999,9999,246,1.86,0,0,9999,99999,9,999999999,999,0.999,0.0,99,0.2,0.0,0
2026,1,24,11,60,?9?9?9?9,-25.6,-32.8,51,101590,9999,9999,9999,273,762,67,999999,999999,999999,9999,293,4.41,0,0,9999,99999,9,999999999,999,0.999,0.0,99,0.2,0.0,0
2026,1,24,12,60,?9?9?9?9,-24.2,-32.8,45,101600,9999,9999,9999,383,851,79,999999,999999,999999,9999,282,3.02,0,0,9999,99999,9,999999999,999,0.999,0.0,99,0.2,0.0,0
2026,1,24,13,60,?9?9?9?9,-22.5,-31.5,44,101580,9999,9999,9999,443,890,84,999999,999999,999999,9999,288,3.84,0,0,9999,99999,9,999999999,999,0.999,0.0,99,0.2,0.0,0
2026,1,24,14,60,?9?9?9?9,-20.9,-30.2,43,101540,9999,9999,9999,447,889,86,999999,999999,999999,9999,286,4.07,0,0,9999,99999,9,999999999,999,0.999,0.0,99,0.2,0.0,0
2026,1,24,15,60,?9?9?9?9,-20.0,-29.2,44,101540,9999,9999,9999,392,853,81,999999,999999,999999,9999,286,3.96,8,8,9999,99999,9,999999999,999,0.999,0.0,99,0.2,0.0,0
2026,1,24,16,60,?9?9?9?9,-19.4,-28.5,44,101590,9999,9999,9999,287,772,69,999999,999999,999999,9999,283,3.49,0,0,9999,99999,9,999999999,999,0.999,0.0,99,0.2,0.0,0
2026,1,24,17,60,?9?9?9?9,-20.3,-28.2,49,101600,9999,9999,9999,147,608,47,999999,999999,999999,9999,261,1.67,0,0,9999,99999,9,999999999,999,0.999,0.0,99,0.2,0.0,0
2026,1,24,18,60,?9?9?9?9,-24.3,-29.0,65,101640,9999,9999,9999,21,172,10,999999,999999,999999,9999,224,1.94,0,0,9999,99999,9,999999999,999,0.999,0.0,99,0.2,0.0,0
2026,1,24,19,60,?9?9?9?9,-26.0,-30.0,69,101650,9999,9999,9999,0,0,0,999999,999999,999999,9999,237,2.02,0,0,9999,99999,9,999999999,999,0.999,0.0,99,0.2,0.0,0
2026,1,24,20,60,?9?9?9?9,-27.0,-31.4,66,101700,9999,9999,9999,0,0,0,999999,999999,999999,9999,267,2.25,0,0,9999,99999,9,999999999,999,0.999,0.0,99,0.2,0.0,0
2026,1,24,21,60,?9?9?9?9,-26.2,-31.0,64,101730,9999,9999,9999,0,0,0,999999,999999,999999,9999,273,2.5,0,0,9999,99999,9,999999999,999,0.999,0.0,99,0.2,0.0,0
2026,1,24,22,60,?9?9?9?9,-27.2,-31.8,66,101730,9999,9999,9999,0,0,0,999999,999999,999999,9999,273,2.05,0,0,9999,99999,9,999999999,999,0.999,0.0,99,0.2,0.0,0
2026,1,24,23,60,?9?9?9?9,-28.7,-32.7,68,101760,9999,9999,9999,0,0,0,999999,999999,999999,9999,261,2.02,0,0,9999,99999,9,999999999,999,0.999,0.0,99,0.2,0.0,0
2026,1,24,24,60,?9?9?9?9,-29.5,-33.2,71,101790,9999,9999,9999,0,0,0,999999,999999,999999,9999,270,1.85,0,0,9999,99999,9,999999999,999,0.999,0.0,99,0.2,0.0,0
2026,1,25,1,60,?9?9?9?9,-30.0,-33.5,71,101770,9999,9999,9999,0,0,0,999999,999999,999999,9999,275,1.61,0,0,9999,99999,9,999999999,999,0.999,0.0,99,0.2,0.0,0
2026,1,25,2,60,?9?9?9?9,-30.5,-34.3,69,101800,9999,9999,9999,0,0,0,999999,999999,999999,9999,284,1.86,0,0,9999,99999,9,999999999,999,0.999,0.0,99,0.2,0.0,0
2026,1,25,3,60,?9?9?9?9,-30.7,-34.5,70,101840,9999,9999,9999,0,0,0,999999,999999,999999,9999,287,1.68,0,0,9999,99999,9,999999999,999,0.999,0.0,99,0.2,0.0,0
2026,1,25,4,60,?9?9?9?9,-30.8,-34.5,70,101810,9999,9999,9999,0,0,0,999999,999999,999999,9999,301,1.28,0,0,9999,99999,9,999999999,999,0.999,0.0,99,0.2,0.0,0
2026,1,25,5,60,?9?9?9?9,-31.0,-34.8,70,101790,9999,9999,9999,0,0,0,999999,999999,999999,9999,301,1.17,10,10,9999,99999,9,999999999,999,0.999,0.0,99,0.2,0.0,0
2026,1,25,6,60,?9?9?9?9,-30.8,-34.7,69,101770,9999,9999,9999,0,0,0,999999,999999,999999,9999,305,0.97,10,10,9999,99999,9,999999999,999,0.999,0.0,99,0.2,0.0,0
2026,1,25,7,60,?9?9?9?9,-30.4,-34.5,67,101770,9999,9999,9999,0,0,0,999999,999999,999999,9999,322,1.21,10,10,9999,99999,9,999999999,999,0.999,0.0,99,0.2,0.0,0
2026,1,25,8,60,?9?9?9?9,-28.8,-33.2,65,101790,9999,9999,9999,0,0,0,999999,999999,999999,9999,333,0.56,10,10,9999,99999,9,999999999,999,0.999,0.0,99,0.2,0.0,0
2026,1,25,9,60,?9?9?9?9,-28.1,-32.7,65,101790,9999,9999,9999,10,0,10,999999,999999,999999,9999,321,0.71,10,10,9999,99999,9,999999999,999,0.999,0.0,99,0.2,0.0,0
2026,1,25,10,60,?9?9?9?9,-25.8,-31.9,57,101770,9999,9999,9999,110,256,71,999999,999999,999999,9999,304,0.72,10,10,9999,99999,9,999999999,999,0.999,0.0,99,0.2,0.0,0
2026,1,25,11,60,?9?9?9?9,-23.4,-31.0,50,101750,9999,9999,9999,222,303,139,999999,999999,999999,9999,333,0.78,10,10,9999,99999,9,999999999,999,0.999,0.0,99,0.2,0.0,0
2026,1,25,12,60,?9?9?9?9,-22.0,-30.5,46,101640,9999,9999,9999,316,371,182,999999,999999,999999,9999,69,0.97,10,10,9999,99999,9,999999999,999,0.999,0.0,99,0.2,0.0,0
2026,1,25,13,60,?9?9?9?9,-21.2,-29.9,46,101560,9999,9999,9999,329,248,228,999999,999999,999999,9999,82,0.76,10,10,9999,99999,9,999999999,999,0.999,0.0,99,0.2,0.0,0
2026,1,25,14,60,?9?9?9?9,-19.5,-28.3,46,101390,9999,9999,9999,306,134,251,999999,999999,999999,9999,69,0.85,10,10,9999,99999,9,999999999,999,0.999,0.0,99,0.2,0.0,0
2026,1,25,15,60,?9?9?9?9,-19.1,-27.8,46,101310,9999,9999,9999,280,176,215,999999,999999,999999,9999,114,0.87,10,10,9999,99999,9,999999999,999,0.999,0.0,99,0.2,0.0,0
2026,1,25,16,60,?9?9?9?9,-19.1,-27.2,49,101170,9999,9999,9999,198,105,168,999999,999999,999999,9999,107,0.84,10,10,9999,99999,9,999999999,999,0.999,0.0,99,0.2,0.0,0
2026,1,25,17,60,?9?9?9?9,-19.5,-26.5,54,101120,9999,9999,9999,100,65,89,999999,999999,999999,9999,119,0.63,10,10,9999,99999,9,999999999,999,0.999,0.0,99,0.2,0.0,0
2026,1,25,18,60,?9?9?9?9,-20.0,-25.2,63,101000,9999,9999,9999,12,0,12,999999,999999,999999,9999,45,1.2,10,10,9999,99999,9,999999999,999,0.999,0.0,99,0.2,0.0,0
2026,1,25,19,60,?9?9?9?9,-20.1,-24.5,68,100910,9999,9999,9999,0,0,0,999999,999999,999999,9999,33,2.21,10,10,9999,99999,9,999999999,999,0.999,0.0,99,0.2,0.0,0
2026,1,25,20,60,?9?9?9?9,-20.1,-24.8,66,100830,9999,9999,9999,0,0,0,999999,999999,999999,9999,39,2.7,10,10,9999,99999,9,999999999,999,0.999,0.001,99,0.2,0.1,1
2026,1,25,21,60,?9?9?9?9,-19.9,-24.0,70,100700,9999,9999,9999,0,0,0,999999,999999,999999,9999,43,2.48,10,10,9999,99999,9,999999999,999,0.999,0.001,99,0.2,0.2,1
2026,1,25,22,60,?9?9?9?9,-19.9,-23.6,72,100550,9999,9999,9999,0,0,0,999999,999999,999999,9999,41,3.12,10,10,9999,99999,9,999999999,999,0.999,0.001,99,0.2,0.2,1
2026,1,25,23,60,?9?9?9?9,-19.8,-23.4,73,100440,9999,9999,9999,0,0,0,999999,999999,999999,9999,35,3.41,10,10,9999,99999,9,999999999,999,0.999,0.002,99,0.2,0.3,1
2026,1,25,24,60,?9?9?9?9,-19.1,-23.0,71,100300,9999,9999,9999,0,0,0,999999,999999,999999,9999,47,3.71,10,10,9999,99999,9,999999999,999,0.999,0.003,99,0.2,0.4,1
2026,1,26,1,60,?9?9?9?9,-18.1,-22.0,72,100230,9999,9999,9999,0,0,0,999999,999999,999999,9999,50,3.48,10,10,9999,99999,9,999999999,999,0.999,0.003,99,0.2,0.4,1
2026,1,26,2,60,?9?9?9?9,-17.5,-20.8,76,100050,9999,9999,9999,0,0,0,999999,999999,999999,9999,60,3.94,10,10,9999,99999,9,999999999,999,0.999,0.003,99,0.2,0.4,1
2026,1,26,3,60,?9?9?9?9,-16.6,-19.6,77,99930,9999,9999,9999,0,0,0,999999,999999,999999,9999,64,4.11,10,10,9999,99999,9,999999999,999,0.999,0.003,99,0.2,0.4,1
2026,1,26,4,60,?9?9?9?9,-16.1,-19.0,78,99850,9999,9999,9999,0,0,0,999999,999999,999999,9999,63,4.34,10,10,9999,99999,9,999999999,999,0.999,0.001,99,0.2,0.2,1
2026,1,26,5,60,?9?9?9?9,-15.9,-18.9,78,99760,9999,9999,9999,0,0,0,999999,999999,999999,9999,67,4.52,10,10,9999,99999,9,999999999,999,0.999,0.002,99,0.2,0.3,1
2026,1,26,6,60,?9?9?9?9,-15.8,-18.8,78,99690,9999,9999,9999,0,0,0,999999,999999,999999,9999,69,4.45,10,10,9999,99999,9,999999999,999,0.999,0.002,99,0.2,0.3,1
2026,1,26,7,60,?9?9?9?9,-15.8,-18.7,78,99600,9999,9999,9999,0,0,0,999999,999999,999999,9999,72,4.57,10,10,9999,99999,9,999999999,999,0.999,0.002,99,0.2,0.3,1
2026,1,26,8,60,?9?9?9?9,-15.7,-18.2,81,99520,9999,9999,9999,0,0,0,999999,999999,999999,9999,79,4.53,10,10,9999,99999,9,999999999,999,0.999,0.002,99,0.2,0.2,1
2026,1,26,9,60,?9?9?9?9,-15.5,-18.1,80,99500,9999,9999,9999,7,0,7,999999,999999,999999,9999,80,4.42,10,10,9999,99999,9,999999999,999,0.999,0.001,99,0.2,0.2,1
2026,1,26,10,60,?9?9?9?9,-15.1,-18.0,78,99460,9999,9999,9999,54,0,54,999999,999999,999999,9999,73,4.51,10,10,9999,99999,9,999999999,999,0.999,0.001,99,0.2,0.2,1
2026,1,26,11,60,?9?9?9?9,-14.8,-18.0,76,99380,9999,9999,9999,121,4,120,999999,999999,999999,9999,77,4.57,10,10,9999,99999,9,999999999,999,0.999,0.002,99,0.2,0.3,1
2026,1,26,12,60,?9?9?9?9,-14.2,-17.8,74,99300,9999,9999,9999,164,3,163,999999,999999,999999,9999,82,4.8,10,10,9999,99999,9,999999999,999,0.999,0.003,99,0.2,0.4,1
2026,1,26,13,60,?9?9?9?9,-13.9,-17.5,74,99180,9999,9999,9999,187,7,184,999999,999999,999999,9999,79,4.93,10,10,9999,99999,9,999999999,999,0.999,0.003,99,0.2,0.4,1
2026,1,26,14,60,?9?9?9?9,-13.4,-16.5,77,99070,9999,9999,9999,167,14,161,999999,999999,999999,9999,72,4.32,10,10,9999,99999,9,999999999,999,0.999,0.003,99,0.2,0.4,1
2026,1,26,15,60,?9?9?9?9,-12.8,-15.9,77,98960,9999,9999,9999,167,11,163,999999,999999,999999,9999,69,3.75,10,10,9999,99999,9,999999999,999,0.999,0.003,99,0.2,0.4,1
2026,1,26,16,60,?9?9?9?9,-12.6,-15.5,79,98930,9999,9999,9999,108,0,108,999999,999999,999999,9999,65,3.2,10,10,9999,99999,9,999999999,999,0.999,0.003,99,0.2,0.4,1
2026,1,26,17,60,?9?9?9?9,-12.4,-15.1,81,98900,9999,9999,9999,52,0,52,999999,999999,999999,9999,56,2.7,10,10,9999,99999,9,999999999,999,0.999,0.003,99,0.2,0.4,1
2026,1,26,18,60,?9?9?9?9,-12.6,-14.8,84,98910,9999,9999,9999,9,0,9,999999,999999,999999,9999,46,2.3,10,10,9999,99999,9,999999999,999,0.999,0.003,99,0.2,0.5,1
2026,1,26,19,60,?9?9?9?9,-12.6,-14.6,85,98910,9999,9999,9999,0,0,0,999999,999999,999999,9999,31,2.44,10,10,9999,99999,9,999999999,999,0.999,0.003,99,0.2,0.4,1
2026,1,26,20,60,?9?9?9?9,-12.8,-14.8,85,98940,9999,9999,9999,0,0,0,999999,999999,999999,9999,4,2.16,10,10,9999,99999,9,999999999,999,0.999,0.002,99,0.2,0.4,1
2026,1,26,21,60,?9?9?9?9,-12.8,-14.8,85,98960,9999,9999,9999,0,0,0,999999,999999,999999,9999,347,2.26,10,10,9999,99999,9,999999999,999,0.999,0.002,99,0.2,0.3,1
2026,1,26,22,60,?9?9?9?9,-12.8,-14.9,84,98940,9999,9999,9999,0,0,0,999999,999999,999999,9999,349,2.39,10,10,9999,99999,9,999999999,999,0.999,0.002,99,0.2,0.3,1
2026,1,26,23,60,?9?9?9?9,-12.6,-14.9,83,98930,9999,9999,9999,0,0,0,999999,999999,999999,9999,337,2.71,10,10,9999,99999,9,999999999,999,0.999,0.001,99,0.2,0.2,1
2026,1,26,24,60,?9?9?9?9,-12.6,-15.1,82,98940,9999,9999,9999,0,0,0,999999,999999,999999,9999,334,2.88,10,10,9999,99999,9,999999999,999,0.999,0.001,99,0.2,0.1,1
2026,1,27,1,60,?9?9?9?9,-12.8,-15.4,81,98950,9999,9999,9999,0,0,0,999999,999999,999999,9999,328,3.01,10,10,9999,99999,9,999999999,999,0.999,0.001,99,0.2,0.1,1
2026,1,27,2,60,?9?9?9?9,-14.6,-17.5,79,99020,9999,9999,9999,0,0,0,999999,999999,999999,9999,323,3.46,10,10,9999,99999,9,999999999,999,0.999,0.001,99,0.2,0.1,1
2026,1,27,3,60,?9?9?9?9,-16.1,-18.9,80,99080,9999,9999,9999,0,0,0,999999,999999,999999,9999,318,3.36,8,8,9999,99999,9,999999999,999,0.999,0.0,99,0.2,0.0,0
2026,1,27,4,60,?9?9?9?9,-17.6,-20.4,79,99150,9999,9999,9999,0,0,0,999999,999999,999999,9999,317,3.64,4,4,9999,99999,9,999999999,999,0.999,0.0,99,0.2,0.0,0
2026,1,27,5,60,?9?9?9?9,-18.4,-21.4,78,99190,9999,9999,9999,0,0,0,999999,999999,999999,9999,317,3.68,1,1,9999,99999,9,999999999,999,0.999,0.0,99,0.2,0.0,0
2026,1,27,6,60,?9?9?9?9,-19.1,-22.3,76,99220,9999,9999,9999,0,0,0,999999,999999,999999,9999,318,3.68,3,3,9999,99999,9,999999999,999,0.999,0.0,99,0.2,0.0,0
2026,1,27,7,60,?9?9?9?9,-19.9,-23.1,76,99220,9999,9999,9999,0,0,0,999999,999999,999999,9999,316,3.39,9,9,9999,99999,9,999999999,999,0.999,0.0,99,0.2,0.0,0
2026,1,27,8,60,?9?9?9?9,-20.2,-23.2,77,99230,9999,9999,9999,0,0,0,999999,999999,999999,9999,307,2.75,7,7,9999,99999,9,999999999,999,0.999,0.0,99,0.2,0.0,0
2026,1,27,9,60,?9?9?9?9,-22.2,-25.0,78,99270,9999,9999,9999,15,100,9,999999,999999,999999,9999,267,0.9,5,5,9999,99999,9,999999999,999,0.999,0.0,99,0.2,0.0,0
2026,1,27,10,60,?9?9?9?9,-20.2,-24.5,68,99290,9999,9999,9999,130,467,56,999999,999999,999999,9999,259,0.25,10,10,9999,99999,9,999999999,999,0.999,0.0,99,0.2,0.0,0
2026,1,27,11,60,?9?9?9?9,-18.1,-24.0,60,99260,9999,9999,9999,236,381,129,999999,999999,999999,9999,270,0.0,10,10,9999,99999,9,999999999,999,0.999,0.0,99,0.2,0.0,0
2026,1,27,12,60,?9?9?9?9,-16.4,-23.2,56,99260,9999,9999,9999,268,141,216,999999,999999,999999,9999,170,0.56,10,10,9999,99999,9,999999999,999,0.999,0.0,99,0.2,0.0,0
2026,1,27,13,60,?9?9?9?9,-15.3,-22.2,56,99210,9999,9999,9999,290,94,251,999999,999999,999999,9999,157,1.3,10,10,9999,99999,9,999999999,999,0.999,0.0,99,0.2,0.0,0
2026,1,27,14,60,?9?9?9?9,-14.4,-20.4,60,99140,9999,9999,9999,274,60,249,999999,999999,999999,9999,166,1.9,10,10,9999,99999,9,999999999,999,0.999,0.0,99,0.2,0.0,0
2026,1,27,15,60,?9?9?9?9,-14.7,-19.7,66,99110,9999,9999,9999,240,53,220,999999,999999,999999,9999,179,2.4,10,10,9999,99999,9,999999999,999,0.999,0.0,99,0.2,0.0,0
2026,1,27,16,60,?9?9?9?9,-15.1,-19.3,70,99110,9999,9999,9999,178,68,158,999999,999999,999999,9999,184,1.55,10,10,9999,99999,9,999999999,999,0.999,0.0,99,0.2,0.0,0
2026,1,27,17,60,?9?9?9?9,-15.4,-19.0,74,99100,9999,9999,9999,101,40,94,999999,999999,999999,9999,175,1.25,10,10,9999,99999,9,999999999,999,0.999,0.0,99,0.2,0.0,0
2026,1,27,18,60,?9?9?9?9,-17.1,-19.5,81,99100,9999,9999,9999,18,28,16,999999,999999,999999,9999,166,0.41,10,10,9999,99999,9,999999999,999,0.999,0.0,99,0.2,0.0,0
2026,1,27,19,60,?9?9?9?9,-18.0,-20.1,84,99120,9999,9999,9999,0,0,0,999999,999999,999999,9999,219,0.32,10,10,9999,99999,9,999999999,999,0.999,0.0,99,0.2,0.0,0
2026,1,27,20,60,?9?9?9?9,-18.4,-20.5,84,99190,9999,9999,9999,0,0,0,999999,999999,999999,9999,262,0.35,10,10,9999,99999,9,999999999,999,0.999,0.0,99,0.2,0.0,0
2026,1,27,21,60,?9?9?9?9,-19.4,-21.3,85,99190,9999,9999,9999,0,0,0,999999,999999,999999,9999,338,0.27,10,10,9999,99999,9,999999999,999,0.999,0.0,99,0.2,0.0,0
2026,1,27,22,60,?9?9?9?9,-20.6,-22.4,86,99200,9999,9999,9999,0,0,0,999999,999999,999999,9999,344,0.73,10,10,9999,99999,9,999999999,999,0.999,0.0,99,0.2,0.0,0
2026,1,27,23,60,?9?9?9?9,-20.4,-22.5,83,99190,9999,9999,9999,0,0,0,999999,999999,999999,9999,339,0.97,10,10,9999,99999,9,999999999,999,0.999,0.0,99,0.2,0.0,0
2026,1,27,24,60,?9?9?9?9,-20.5,-22.7,82,99180,9999,9999,9999,0,0,0,999999,999999,999999,9999,330,0.99,10,10,9999,99999,9,999999999,999,0.999,0.0,99,0.2,0.0,0
2026,1,28,1,60,?9?9?9?9,-22.1,-24.1,84,99160,9999,9999,9999,0,0,0,999999,999999,999999,9999,322,1.21,3,3,9999,99999,9,999999999,999,0.999,0.0,99,0.2,0.0,0
2026,1,28,2,60,?9?9?9?9,-23.3,-25.5,82,99190,9999,9999,9999,0,0,0,999999,999999,999999,9999,314,2.23,1,1,9999,99999,9,999999999,999,0.999,0.0,99,0.2,0.0,0
2026,1,28,3,60,?9?9?9?9,-22.6,-25.1,80,99260,9999,9999,9999,0,0,0,999999,999999,999999,9999,320,2.41,0,0,9999,99999,9,999999999,999,0.999,0.0,99,0.2,0.0,0
2026,1,28,4,60,?9?9?9?9,-22.4,-24.9,80,99280,9999,9999,9999,0,0,0,999999,999999,999999,9999,328,2.36,0,0,9999,99999,9,999999999,999,0.999,0.0,99,0.2,0.0,0
2026,1,28,5,60,?9?9?9?9,-22.7,-25.1,80,99300,9999,9999,9999,0,0,0,999999,999999,999999,9999,332,2.33,0,0,9999,99999,9,999999999,999,0.999,0.0,99,0.2,0.0,0
2026,1,28,6,60,?9?9?9?9,-23.0,-25.4,81,99350,9999,9999,9999,0,0,0,999999,999999,999999,9999,322,2.17,0,0,9999,99999,9,999999999,999,0.999,0.0,99,0.2,0.0,0
2026,1,28,7,60,?9?9?9?9,-23.5,-25.4,84,99410,9999,9999,9999,0,0,0,999999,999999,999999,9999,300,1.1,0,0,9999,99999,9,999999999,999,0.999,0.0,99,0.2,0.0,0
2026,1,28,8,60,?9?9?9?9,-22.6,-25.0,81,99440,9999,9999,9999,0,0,0,999999,999999,999999,9999,321,1.42,0,0,9999,99999,9,999999999,999,0.999,0.0,99,0.2,0.0,0
2026,1,28,9,60,?9?9?9?9,-23.2,-25.4,82,99520,9999,9999,9999,17,146,8,999999,999999,999999,9999,293,0.76,0,0,9999,99999,9,999999999,999,0.999,0.0,99,0.2,0.0,0
2026,1,28,10,60,?9?9?9?9,-20.1,-24.1,70,99570,9999,9999,9999,141,599,44,999999,999999,999999,9999,252,0.32,0,0,9999,99999,9,999999999,999,0.999,0.0,99,0.2,0.0,0
2026,1,28,11,60,?9?9?9?9,-16.9,-22.5,62,99580,9999,9999,9999,282,756,67,999999,999999,999999,9999,236,0.18,0,0,9999,99999,9,999999999,999,0.999,0.0,99,0.2,0.0,0
2026,1,28,12,60,?9?9?9?9,-14.7,-21.0,59,99560,9999,9999,9999,392,844,78,999999,999999,999999,9999,174,0.45,0,0,9999,99999,9,999999999,999,0.999,0.0,99,0.2,0.0,0
2026,1,28,13,60,?9?9?9?9,-13.4,-20.4,56,99560,9999,9999,9999,451,873,85,999999,999999,999999,9999,186,1.46,1,1,9999,99999,9,999999999,999,0.999,0.0,99,0.2,0.0,0
2026,1,28,14,60,?9?9?9?9,-12.9,-18.5,63,99510,9999,9999,9999,454,864,89,999999,999999,999999,9999,184,2.71,10,10,9999,99999,9,999999999,999,0.999,0.0,99,0.2,0.0,0
2026,1,28,15,60,?9?9?9?9,-14.2,-18.5,70,99540,9999,9999,9999,317,385,170,999999,999999,999999,9999,190,2.89,10,10,9999,99999,9,999999999,999,0.999,0.0,99,0.2,0.0,0
2026,1,28,16,60,?9?9?9?9,-14.6,-18.4,73,99550,9999,9999,9999,202,207,140,999999,999999,999999,9999,207,2.08,10,10,9999,99999,9,999999999,999,0.999,0.0,99,0.2,0.0,0
2026,1,28,17,60,?9?9?9?9,-15.2,-18.6,76,99500,9999,9999,9999,124,282,73,999999,999999,999999,9999,209,1.43,7,7,9999,99999,9,999999999,999,0.999,0.0,99,0.2,0.0,0
2026,1,28,18,60,?9?9?9?9,-18.5,-20.5,84,99480,9999,9999,9999,26,166,14,999999,999999,999999,9999,220,1.7,3,3,9999,99999,9,999999999,999,0.999,0.0,99,0.2,0.0,0
2026,1,28,19,60,?9?9?9?9,-20.0,-21.4,89,99470,9999,9999,9999,0,0,0,999999,999999,999999,9999,242,1.36,8,8,9999,99999,9,999999999,999,0.999,0.0,99,0.2,0.0,0
2026,1,28,20,60,?9?9?9?9,-21.0,-22.4,89,99490,9999,9999,9999,0,0,0,999999,999999,999999,9999,277,1.76,10,10,9999,99999,9,999999999,999,0.999,0.0,99,0.2,0.0,0
2026,1,28,21,60,?9?9?9?9,-20.4,-22.4,84,99460,9999,9999,9999,0,0,0,999999,999999,999999,9999,302,1.96,10,10,9999,99999,9,999999999,999,0.999,0.0,99,0.2,0.0,0
2026,1,28,22,60,?9?9?9?9,-19.6,-22.6,77,99460,9999,9999,9999,0,0,0,999999,999999,999999,9999,321,2.52,3,3,9999,99999,9,999999999,999,0.999,0.0,99,0.2,0.0,0
2026,1,28,23,60,?9?9?9?9,-18.8,-22.4,73,99470,9999,9999,9999,0,0,0,999999,999999,999999,9999,327,2.97,3,3,9999,99999,9,999999999,999,0.999,0.0,99,0.2,0.0,0
2026,1,28,24,60,?9?9?9?9,-18.5,-22.2,72,99500,9999,9999,9999,0,0,0,999999,999999,999999,9999,331,2.87,4,4,9999,99999,9,999999999,999,0.999,0.0,99,0.2,0.0,0
2026,1,29,1,60,?9?9?9?9,-18.5,-22.2,73,99510,9999,9999,9999,0,0,0,999999,999999,999999,9999,331,2.8,3,3,9999,99999,9,999999999,999,0.999,0.0,99,0.2,0.0,0
2026,1,29,2,60,?9?9?9?9,-18.9,-22.4,74,99500,9999,9999,9999,0,0,0,999999,999999,999999,9999,330,2.93,4,4,9999,99999,9,999999999,999,0.999,0.0,99,0.2,0.0,0
2026,1,29,3,60,?9?9?9?9,-19.8,-23.1,74,99500,9999,9999,9999,0,0,0,999999,999999,999999,9999,336,3.11,1,1,9999,99999,9,999999999,999,0.999,0.0,99,0.2,0.0,0
2026,1,29,4,60,?9?9?9?9,-20.1,-23.4,75,99500,9999,9999,9999,0,0,0,999999,999999,999999,9999,340,3.35,1,1,9999,99999,9,999999999,999,0.999,0.0,99,0.2,0.0,0
2026,1,29,5,60,?9?9?9?9,-20.3,-23.5,75,99530,9999,9999,9999,0,0,0,999999,999999,999999,9999,337,3.43,2,2,9999,99999,9,999999999,999,0.999,0.0,99,0.2,0.0,0
2026,1,29,6,60,?9?9?9?9,-20.5,-23.8,75,99550,9999,9999,9999,0,0,0,999999,999999,999999,9999,337,3.63,1,1,9999,99999,9,999999999,999,0.999,0.0,99,0.2,0.0,0
2026,1,29,7,60,?9?9?9?9,-20.9,-24.2,75,99540,9999,9999,9999,0,0,0,999999,999999,999999,9999,336,3.72,3,3,9999,99999,9,999999999,999,0.999,0.0,99,0.2,0.0,0
2026,1,29,8,60,?9?9?9?9,-20.0,-23.4,74,99540,9999,9999,9999,0,0,0,999999,999999,999999,9999,335,3.91,8,8,9999,99999,9,999999999,999,0.999,0.0,99,0.2,0.0,0
2026,1,29,9,60,?9?9?9?9,-19.5,-23.4,71,99620,9999,9999,9999,16,95,10,999999,999999,999999,9999,335,3.87,9,9,9999,99999,9,999999999,999,0.999,0.0,99,0.2,0.0,0
2026,1,29,10,60,?9?9?9?9,-18.6,-23.4,66,99630,9999,9999,9999,118,302,68,999999,999999,999999,9999,335,3.49,6,6,9999,99999,9,999999999,999,0.999,0.0,99,0.2,0.0,0
2026,1,29,11,60,?9?9?9?9,-17.1,-23.1,60,99640,9999,9999,9999,249,489,108,999999,999999,999999,9999,333,3.09,0,0,9999,99999,9,999999999,999,0.999,0.0,99,0.2,0.0,0
2026,1,29,12,60,?9?9?9?9,-14.9,-22.5,52,99580,9999,9999,9999,375,689,116,999999,999999,999999,9999,329,2.85,0,0,9999,99999,9,999999999,999,0.999,0.0,99,0.2,0.0,0
2026,1,29,13,60,?9?9?9?9,-13.4,-22.4,47,99510,9999,9999,9999,452,843,95,999999,999999,999999,9999,318,2.9,0,0,9999,99999,9,999999999,999,0.999,0.0,99,0.2,0.0,0
2026,1,29,14,60,?9?9?9?9,-12.8,-22.7,43,99450,9999,9999,9999,463,895,81,999999,999999,999999,9999,306,3.22,0,0,9999,99999,9,999999999,999,0.999,0.0,99,0.2,0.0,0
2026,1,29,15,60,?9?9?9?9,-12.9,-23.1,42,99450,9999,9999,9999,411,863,78,999999,999999,999999,9999,307,3.61,1,1,9999,99999,9,999999999,999,0.999,0.0,99,0.2,0.0,0
2026,1,29,16,60,?9?9?9?9,-13.4,-23.1,44,99480,9999,9999,9999,307,784,69,999999,999999,999999,9999,298,3.89,5,5,9999,99999,9,999999999,999,0.999,0.0,99,0.2,0.0,0
2026,1,29,17,60,?9?9?9?9,-14.4,-22.6,49,99470,9999,9999,9999,165,609,52,999999,999999,999999,9999,292,3.39,10,10,9999,99999,9,999999999,999,0.999,0.0,99,0.2,0.0,0
2026,1,29,18,60,?9?9?9?9,-15.6,-22.5,55,99490,9999,9999,9999,25,80,19,999999,999999,999999,9999,299,4.05,10,10,9999,99999,9,999999999,999,0.999,0.0,99,0.2,0.0,0
2026,1,29,19,60,?9?9?9?9,-16.1,-22.7,57,99500,9999,9999,9999,0,0,0,999999,999999,999999,9999,304,4.58,10,10,9999,99999,9,999999999,999,0.999,0.0,99,0.2,0.0,0
2026,1,29,20,60,?9?9?9?9,-15.8,-22.1,58,99520,9999,9999,9999,0,0,0,999999,999999,999999,9999,303,4.81,10,10,9999,99999,9,999999999,999,0.999,0.0,99,0.2,0.0,0
2026,1,29,21,60,?9?9?9?9,-16.2,-22.2,60,99510,9999,9999,9999,0,0,0,999999,999999,999999,9999,309,4.8,10,10,9999,99999,9,999999999,999,0.999,0.0,99,0.2,0.0,0
2026,1,29,22,60,?9?9?9?9,-16.7,-22.4,62,99490,9999,9999,9999,0,0,0,999999,999999,999999,9999,313,4.95,10,10,9999,99999,9,999999999,999,0.999,0.001,99,0.2,0.1,1
2026,1,29,23,60,?9?9?9?9,-17.1,-22.5,63,99470,9999,9999,9999,0,0,0,999999,999999,999999,9999,313,4.81,10,10,9999,99999,9,999999999,999,0.999,0.001,99,0.2,0.1,1
2026,1,29,24,60,?9?9?9?9,-17.4,-22.6,64,99470,9999,9999,9999,0,0,0,999999,999999,999999,9999,310,4.47,10,10,9999,99999,9,999999999,999,0.999,0.001,99,0.2,0.1,1
2026,1,30,1,60,?9?9?9?9,-17.7,-22.9,64,99430,9999,9999,9999,0,0,0,999999,999999,999999,9999,304,4.24,10,10,9999,99999,9,999999999,999,0.999,0.001,99,0.2,0.1,1
2026,1,30,2,60,?9?9?9?9,-18.2,-23.4,64,99430,9999,9999,9999,0,0,0,999999,999999,999999,9999,305,4.09,10,10,9999,99999,9,999999999,999,0.999,0.001,99,0.2,0.1,1
2026,1,30,3,60,?9?9?9?9,-18.4,-23.5,64,99440,9999,9999,9999,0,0,0,999999,999999,999999,9999,307,4.11,10,10,9999,99999,9,999999999,999,0.999,0.001,99,0.2,0.1,1
2026,1,30,4,60,?9?9?9?9,-18.5,-23.6,64,99430,9999,9999,9999,0,0,0,999999,999999,999999,9999,310,4.08,10,10,9999,99999,9,999999999,999,0.999,0.001,99,0.2,0.1,1
2026,1,30,5,60,?9?9?9?9,-18.6,-23.6,65,99440,9999,9999,9999,0,0,0,999999,999999,999999,9999,311,4.0,10,10,9999,99999,9,999999999,999,0.999,0.001,99,0.2,0.1,1
2026,1,30,6,60,?9?9?9?9,-18.5,-23.5,65,99440,9999,9999,9999,0,0,0,999999,999999,999999,9999,307,3.78,10,10,9999,99999,9,999999999,999,0.999,0.001,99,0.2,0.1,1
2026,1,30,7,60,?9?9?9?9,-18.5,-23.2,66,99410,9999,9999,9999,0,0,0,999999,999999,999999,9999,306,3.44,10,10,9999,99999,9,999999999,999,0.999,0.001,99,0.2,0.1,1
2026,1,30,8,60,?9?9?9?9,-18.7,-23.4,66,99540,9999,9999,9999,0,0,0,999999,999999,999999,9999,297,3.38,10,10,9999,99999,9,999999999,999,0.999,0.001,99,0.2,0.1,1
2026,1,30,9,60,?9?9?9?9,-18.4,-23.3,65,99590,9999,9999,9999,11,0,11,999999,999999,999999,9999,297,2.97,10,10,9999,99999,9,999999999,999,0.999,0.001,99,0.2,0.1,1
2026,1,30,10,60,?9?9?9?9,-17.9,-23.6,61,99580,9999,9999,9999,80,0,80,999999,999999,999999,9999,296,3.18,10,10,9999,99999,9,999999999,999,0.999,0.001,99,0.2,0.1,1
2026,1,30,11,60,?9?9?9?9,-17.0,-23.5,57,99610,9999,9999,9999,220,271,141,999999,999999,999999,9999,307,3.36,9,9,9999,99999,9,999999999,999,0.999,0.0,99,0.2,0.0,0
2026,1,30,12,60,?9?9?9?9,-15.2,-22.5,54,99630,9999,9999,9999,327,392,178,999999,999999,999999,9999,320,3.76,10,10,9999,99999,9,999999999,999,0.999,0.0,99,0.2,0.0,0
2026,1,30,13,60,?9?9?9?9,-14.1,-21.6,53,99590,9999,9999,9999,354,327,214,999999,999999,999999,9999,312,3.36,10,10,9999,99999,9,999999999,999,0.999,0.0,99,0.2,0.0,0
2026,1,30,14,60,?9?9?9?9,-14.1,-21.6,53,99660,9999,9999,9999,386,390,218,999999,999999,999999,9999,289,3.49,10,10,9999,99999,9,999999999,999,0.999,0.0,99,0.2,0.0,0
2026,1,30,15,60,?9?9?9?9,-13.3,-21.2,51,99670,9999,9999,9999,325,292,211,999999,999999,999999,9999,294,3.49,9,9,9999,99999,9,999999999,999,0.999,0.0,99,0.2,0.0,0
2026,1,30,16,60,?9?9?9?9,-12.9,-20.9,51,99700,9999,9999,9999,260,422,130,999999,999999,999999,9999,296,3.33,6,6,9999,99999,9,999999999,999,0.999,0.0,99,0.2,0.0,0
2026,1,30,17,60,?9?9?9?9,-13.4,-20.5,55,99740,9999,9999,9999,150,400,74,999999,999999,999999,9999,295,2.75,2,2,9999,99999,9,999999999,999,0.999,0.0,99,0.2,0.0,0
2026,1,30,18,60,?9?9?9?9,-15.6,-20.5,66,99770,9999,9999,9999,31,208,15,999999,999999,999999,9999,284,2.11,2,2,9999,99999,9,999999999,999,0.999,0.0,99,0.2,0.0,0
2026,1,30,19,60,?9?9?9?9,-17.5,-21.6,70,99820,9999,9999,9999,0,0,0,999999,999999,999999,9999,280,1.98,2,2,9999,99999,9,999999999,999,0.999,0.0,99,0.2,0.0,0
2026,1,30,20,60,?9?9?9?9,-16.5,-20.8,70,99910,9999,9999,9999,0,0,0,999999,999999,999999,9999,291,2.41,2,2,9999,99999,9,999999999,999,0.999,0.0,99,0.2,0.0,0
2026,1,30,21,60,?9?9?9?9,-17.4,-21.5,71,99920,9999,9999,9999,0,0,0,999999,999999,999999,9999,288,2.06,2,2,9999,99999,9,999999999,999,0.999,0.0,99,0.2,0.0,0
2026,1,30,22,60,?9?9?9?9,-18.9,-22.4,74,99920,9999,9999,9999,0,0,0,999999,999999,999999,9999,288,1.99,3,3,9999,99999,9,999999999,999,0.999,0.0,99,0.2,0.0,0
2026,1,30,23,60,?9?9?9?9,-19.4,-22.7,75,99930,9999,9999,9999,0,0,0,999999,999999,999999,9999,291,2.09,2,2,9999,99999,9,999999999,999,0.999,0.0,99,0.2,0.0,0
2026,1,30,24,60,?9?9?9?9,-19.8,-23.0,76,99940,9999,9999,9999,0,0,0,999999,999999,999999,9999,293,2.33,2,2,9999,99999,9,999999999,999,0.999,0.0,99,0.2,0.0,0
2026,1,31,1,60,?9?9?9?9,-19.2,-22.6,74,99940,9999,9999,9999,0,0,0,999999,999999,999999,9999,299,2.8,2,2,9999,99999,9,999999999,999,0.999,0.0,99,0.2,0.0,0
2026,1,31,2,60,?9?9?9?9,-17.2,-20.8,74,99950,9999,9999,9999,0,0,0,999999,999999,999999,9999,298,2.73,3,3,9999,99999,9,999999999,999,0.999,0.0,99,0.2,0.0,0
2026,1,31,3,60,?9?9?9?9,-17.2,-20.5,75,99990,9999,9999,9999,0,0,0,999999,999999,999999,9999,304,2.84,2,2,9999,99999,9,999999999,999,0.999,0.0,99,0.2,0.0,0
2026,1,31,4,60,?9?9?9?9,-17.6,-20.8,76,99990,9999,9999,9999,0,0,0,999999,999999,999999,9999,307,2.89,2,2,9999,99999,9,999999999,999,0.999,0.0,99,0.2,0.0,0
2026,1,31,5,60,?9?9?9?9,-17.8,-20.9,77,99990,9999,9999,9999,0,0,0,999999,999999,999999,9999,314,3.04,5,5,9999,99999,9,999999999,999,0.999,0.0,99,0.2,0.0,0
2026,1,31,6,60,?9?9?9?9,-17.8,-20.9,77,99990,9999,9999,9999,0,0,0,999999,999999,999999,9999,316,3.18,2,2,9999,99999,9,999999999,999,0.999,0.0,99,0.2,0.0,0
2026,1,31,7,60,?9?9?9?9,-18.0,-21.0,77,99980,9999,9999,9999,0,0,0,999999,999999,999999,9999,319,3.26,0,0,9999,99999,9,999999999,999,0.999,0.0,99,0.2,0.0,0
2026,1,31,8,60,?9?9?9?9,-16.9,-20.1,76,100020,9999,9999,9999,0,0,0,999999,999999,999999,9999,314,2.83,2,2,9999,99999,9,999999999,999,0.999,0.0,99,0.2,0.0,0
2026,1,31,9,60,?9?9?9?9,-16.5,-19.5,77,100090,9999,9999,9999,21,149,11,999999,999999,999999,9999,323,3.18,9,9,9999,99999,9,999999999,999,0.999,0.0,99,0.2,0.0,0
2026,1,31,10,60,?9?9?9?9,-15.1,-19.5,69,100120,9999,9999,9999,137,423,64,999999,999999,999999,9999,326,2.16,7,7,9999,99999,9,999999999,999,0.999,0.0,99,0.2,0.0,0
2026,1,31,11,60,?9?9?9?9,-13.8,-19.4,62,100130,9999,9999,9999,268,561,102,999999,999999,999999,9999,331,2.39,9,9,9999,99999,9,999999999,999,0.999,0.0,99,0.2,0.0,0
2026,1,31,12,60,?9?9?9?9,-12.2,-19.1,56,100130,9999,9999,9999,374,648,125,999999,999999,999999,9999,338,2.53,10,10,9999,99999,9,999999999,999,0.999,0.0,99,0.2,0.0,0
2026,1,31,13,60,?9?9?9?9,-11.1,-18.5,54,100090,9999,9999,9999,446,766,115,999999,999999,999999,9999,327,2.21,10,10,9999,99999,9,999999999,999,0.999,0.0,99,0.2,0.0,0
2026,1,31,14,60,?9?9?9?9,-12.2,-19.6,54,100110,9999,9999,9999,452,790,108,999999,999999,999999,9999,319,2.3,4,4,9999,99999,9,999999999,999,0.999,0.0,99,0.2,0.0,0
2026,1,31,15,60,?9?9?9?9,-11.5,-19.5,52,100120,9999,9999,9999,382,610,141,999999,999999,999999,9999,313,2.19,7,7,9999,99999,9,999999999,999,0.999,0.0,99,0.2,0.0,0
2026,1,31,16,60,?9?9?9?9,-11.2,-19.3,51,100140,9999,9999,9999,278,509,119,999999,999999,999999,9999,315,2.12,7,7,9999,99999,9,999999999,999,0.999,0.0,99,0.2,0.0,0
2026,1,31,17,60,?9?9?9?9,-12.1,-19.0,56,100160,9999,9999,9999,153,397,76,999999,999999,999999,9999,315,1.34,3,3,9999,99999,9,999999999,999,0.999,0.0,99,0.2,0.0,0
2026,1,31,18,60,?9?9?9?9,-15.1,-20.4,64,100200,9999,9999,9999,32,189,17,999999,999999,999999,9999,295,0.72,2,2,9999,99999,9,999999999,999,0.999,0.0,99,0.2,0.0,0
2026,1,31,19,60,?9?9?9?9,-17.5,-21.5,71,100220,9999,9999,9999,0,0,0,999999,999999,999999,9999,297,0.89,1,1,9999,99999,9,999999999,999,0.999,0.0,99,0.2,0.0,0
2026,1,31,20,60,?9?9?9?9,-18.6,-22.0,75,100260,9999,9999,9999,0,0,0,999999,999999,999999,9999,309,1.74,2,2,9999,99999,9,999999999,999,0.999,0.0,99,0.2,0.0,0
2026,1,31,21,60,?9?9?9?9,-19.0,-22.2,75,100270,9999,9999,9999,0,0,0,999999,999999,999999,9999,314,2.02,8,8,9999,99999,9,999999999,999,0.999,0.0,99,0.2,0.0,0
2026,1,31,22,60,?9?9?9?9,-17.5,-21.1,73,100290,9999,9999,9999,0,0,0,999999,999999,999999,9999,320,2.62,9,9,9999,99999,9,999999999,999,0.999,0.0,99,0.2,0.0,0
2026,1,31,23,60,?9?9?9?9,-16.8,-20.5,73,100290,9999,9999,9999,0,0,0,999999,999999,999999,9999,332,2.95,5,5,9999,99999,9,999999999,999,0.999,0.0,99,0.2,0.0,0
2026,1,31,24,60,?9?9?9?9,-17.0,-20.5,75,100250,9999,9999,9999,0,0,0,999999,999999,999999,9999,337,3.54,0,0,9999,99999,9,999999999,999,0.999,0.0,99,0.2,0.0,0
2026,2,1,1,60,?9?9?9?9,-17.0,-20.3,76,100200,9999,9999,9999,0,0,0,999999,999999,999999,9999,341,3.7,0,0,9999,99999,9,999999999,999,0.999,0.0,99,0.2,0.0,0
2026,2,1,2,60,?9?9?9?9,-16.1,-19.6,74,100170,9999,9999,9999,0,0,0,999999,999999,999999,9999,340,3.46,0,0,9999,99999,9,999999999,999,0.999,0.0,99,0.2,0.0,0
2026,2,1,3,60,?9?9?9?9,-16.9,-20.1,76,100120,9999,9999,9999,0,0,0,999999,999999,999999,9999,340,4.14,0,0,9999,99999,9,999999999,999,0.999,0.0,99,0.2,0.0,0
2026,2,1,4,60,?9?9?9?9,-17.5,-20.9,75,100050,9999,9999,9999,0,0,0,999999,999999,999999,9999,346,4.43,0,0,9999,99999,9,999999999,999,0.999,0.0,99,0.2,0.0,0
2026,2,1,5,60,?9?9?9?9,-18.0,-21.5,74,100010,9999,9999,9999,0,0,0,999999,999999,999999,9999,347,4.92,0,0,9999,99999,9,999999999,999,0.999,0.0,99,0.2,0.0,0
2026,2,1,6,60,?9?9?9?9,-18.5,-22.0,74,100020,9999,9999,9999,0,0,0,999999,999999,999999,9999,350,4.52,0,0,9999,99999,9,999999999,999,0.999,0.0,99,0.2,0.0,0
2026,2,1,7,60,?9?9?9?9,-19.1,-22.6,74,99970,9999,9999,9999,0,0,0,999999,999999,999999,9999,348,5.22,0,0,9999,99999,9,999999999,999,0.999,0.0,99,0.2,0.0,0
2026,2,1,8,60,?9?9?9?9,-19.0,-22.2,76,100020,9999,9999,9999,0,0,0,999999,999999,999999,9999,350,5.28,1,1,9999,99999,9,999999999,999,0.999,0.0,99,0.2,0.0,0
2026,2,1,9,60,?9?9?9?9,-18.9,-22.6,73,100030,9999,9999,9999,23,174,11,999999,999999,999999,9999,350,5.43,2,2,9999,99999,9,999999999,999,0.999,0.0,99,0.2,0.0,0
2026,2,1,10,60,?9?9?9?9,-18.2,-22.8,67,99930,9999,9999,9999,155,612,47,999999,999999,999999,9999,350,4.72,0,0,9999,99999,9,999999999,999,0.999,0.0,99,0.2,0.0,0
2026,2,1,11,60,?9?9?9?9,-16.8,-22.4,62,99850,9999,9999,9999,302,787,66,999999,999999,999999,9999,346,4.58,0,0,9999,99999,9,999999999,999,0.999,0.0,99,0.2,0.0,0
2026,2,1,12,60,?9?9?9?9,-14.9,-21.5,57,99730,9999,9999,9999,415,870,77,999999,999999,999999,9999,344,5.03,0,0,9999,99999,9,999999999,999,0.999,0.0,99,0.2,0.0,0
2026,2,1,13,60,?9?9?9?9,-12.9,-20.8,52,99710,9999,9999,9999,477,905,82,999999,999999,999999,9999,358,3.45,0,0,9999,99999,9,999999999,999,0.999,0.0,99,0.2,0.0,0
2026,2,1,14,60,?9?9?9?9,-10.9,-19.8,48,99690,9999,9999,9999,482,909,82,999999,999999,999999,9999,358,2.75,0,0,9999,99999,9,999999999,999,0.999,0.0,99,0.2,0.0,0
2026,2,1,15,60,?9?9?9?9,-9.7,-19.2,46,99640,9999,9999,9999,429,879,78,999999,999999,999999,9999,347,3.08,0,0,9999,99999,9,999999999,999,0.999,0.0,99,0.2,0.0,0
2026,2,1,16,60,?9?9?9?9,-9.2,-18.5,47,99600,9999,9999,9999,325,811,68,999999,999999,999999,9999,344,3.23,0,0,9999,99999,9,999999999,999,0.999,0.0,99,0.2,0.0,0
2026,2,1,17,60,?9?9?9?9,-9.8,-17.9,52,99570,9999,9999,9999,183,675,49,999999,999999,999999,9999,351,2.68,0,0,9999,99999,9,999999999,999,0.999,0.0,99,0.2,0.0,0
2026,2,1,18,60,?9?9?9?9,-11.8,-18.0,60,99570,9999,9999,9999,40,307,15,999999,999999,999999,9999,350,3.15,0,0,9999,99999,9,999999999,999,0.999,0.0,99,0.2,0.0,0
2026,2,1,19,60,?9?9?9?9,-11.4,-17.4,61,99530,9999,9999,9999,0,0,0,999999,999999,999999,9999,349,5.04,0,0,9999,99999,9,999999999,999,0.999,0.0,99,0.2,0.0,0
2026,2,1,20,60,?9?9?9?9,-10.9,-17.5,58,99510,9999,9999,9999,0,0,0,999999,999999,999999,9999,352,5.35,0,0,9999,99999,9,999999999,999,0.999,0.0,99,0.2,0.0,0
2026,2,1,21,60,?9?9?9?9,-10.8,-18.1,55,99470,9999,9999,9999,0,0,0,999999,999999,999999,9999,356,5.27,0,0,9999,99999,9,999999999,999,0.999,0.0,99,0.2,0.0,0
2026,2,1,22,60,?9?9?9?9,-11.6,-18.8,56,99490,9999,9999,9999,0,0,0,999999,999999,999999,9999,3,4.51,0,0,9999,99999,9,999999999,999,0.999,0.0,99,0.2,0.0,0
2026,2,1,23,60,?9?9?9?9,-12.4,-18.9,59,99500,9999,9999,9999,0,0,0,999999,999999,999999,9999,359,4.75,0,0,9999,99999,9,999999999,999,0.999,0.0,99,0.2,0.0,0
2026,2,1,24,60,?9?9?9?9,-12.9,-18.7,62,99460,9999,9999,9999,0,0,0,999999,999999,999999,9999,353,5.49,0,0,9999,99999,9,999999999,999,0.999,0.0,99,0.2,0.0,0
2026,2,2,1,60,?9?9?9?9,-13.1,-18.2,65,99430,9999,9999,9999,0,0,0,999999,999999,999999,9999,350,5.43,0,0,9999,99999,9,999999999,999,0.999,0.0,99,0.2,0.0,0
2026,2,2,2,60,?9?9?9?9,-14.8,-20.8,61,99470,9999,9999,9999,0,0,0,999999,999999,999999,9999,355,4.42,0,0,9999,99999,9,999999999,999,0.999,0.0,99,0.2,0.0,0
2026,2,2,3,60,?9?9?9?9,-14.8,-20.9,60,99510,9999,9999,9999,0,0,0,999999,999999,999999,9999,351,4.41,0,0,9999,99999,9,999999999,999,0.999,0.0,99,0.2,0.0,0
2026,2,2,4,60,?9?9?9?9,-14.8,-21.0,59,99520,9999,9999,9999,0,0,0,999999,999999,999999,9999,350,4.52,0,0,9999,99999,9,999999999,999,0.999,0.0,99,0.2,0.0,0
2026,2,2,5,60,?9?9?9?9,-14.9,-21.0,59,99550,9999,9999,9999,0,0,0,999999,999999,999999,9999,352,4.14,0,0,9999,99999,9,999999999,999,0.999,0.0,99,0.2,0.0,0
2026,2,2,6,60,?9?9?9?9,-15.4,-21.3,61,99580,9999,9999,9999,0,0,0,999999,999999,999999,9999,353,3.53,0,0,9999,99999,9,999999999,999,0.999,0.0,99,0.2,0.0,0
2026,2,2,7,60,?9?9?9?9,-16.1,-21.5,63,99600,9999,9999,9999,0,0,0,999999,999999,999999,9999,351,3.14,0,0,9999,99999,9,999999999,999,0.999,0.0,99,0.2,0.0,0
2026,2,2,8,60,?9?9?9?9,-16.2,-20.8,68,99660,9999,9999,9999,0,0,0,999999,999999,999999,9999,351,4.2,0,0,9999,99999,9,999999999,999,0.999,0.0,99,0.2,0.0,0
2026,2,2,9,60,?9?9?9?9,-15.4,-20.8,63,99680,9999,9999,9999,26,212,11,999999,999999,999999,9999,343,4.65,0,0,9999,99999,9,999999999,999,0.999,0.0,99,0.2,0.0,0
2026,2,2,10,60,?9?9?9?9,-13.5,-20.1,58,99710,9999,9999,9999,163,644,47,999999,999999,999999,9999,344,3.74,0,0,9999,99999,9,999999999,999,0.999,0.0,99,0.2,0.0,0
2026,2,2,11,60,?9?9?9?9,-11.6,-19.5,52,99710,9999,9999,9999,310,802,66,999999,999999,999999,9999,346,2.52,0,0,9999,99999,9,999999999,999,0.999,0.0,99,0.2,0.0,0
2026,2,2,12,60,?9?9?9?9,-9.1,-18.8,45,99710,9999,9999,9999,421,875,77,999999,999999,999999,9999,332,1.92,0,0,9999,99999,9,999999999,999,0.999,0.0,99,0.2,0.0,0
2026,2,2,13,60,?9?9?9?9,-6.8,-18.0,41,99680,9999,9999,9999,482,905,83,999999,999999,999999,9999,319,1.84,0,0,9999,99999,9,999999999,999,0.999,0.0,99,0.2,0.0,0
2026,2,2,14,60,?9?9?9?9,-4.7,-16.0,41,99640,9999,9999,9999,484,904,82,999999,999999,999999,9999,316,2.02,0,0,9999,99999,9,999999999,999,0.999,0.0,99,0.2,0.0,0
2026,2,2,15,60,?9?9?9?9,-3.2,-15.2,39,99600,9999,9999,9999,429,869,78,999999,999999,999999,9999,310,1.24,0,0,9999,99999,9,999999999,999,0.999,0.0,99,0.2,0.0,0
2026,2,2,16,60,?9?9?9?9,-3.5,-15.2,40,99620,9999,9999,9999,324,796,68,999999,999999,999999,9999,286,0.93,0,0,9999,99999,9,999999999,999,0.999,0.0,99,0.2,0.0,0
2026,2,2,17,60,?9?9?9?9,-4.8,-15.4,43,99630,9999,9999,9999,183,650,51,999999,999999,999999,9999,239,0.29,0,0,9999,99999,9,999999999,999,0.999,0.0,99,0.2,0.0,0
2026,2,2,18,60,?9?9?9?9,-8.6,-15.6,57,99640,9999,9999,9999,40,298,15,999999,999999,999999,9999,196,0.36,0,0,9999,99999,9,999999999,999,0.999,0.0,99,0.2,0.0,0
2026,2,2,19,60,?9?9?9?9,-11.2,-16.5,65,99660,9999,9999,9999,0,0,0,999999,999999,999999,9999,250,0.59,0,0,9999,99999,9,999999999,999,0.999,0.0,99,0.2,0.0,0
2026,2,2,20,60,?9?9?9?9,-13.7,-17.8,71,99670,9999,9999,9999,0,0,0,999999,999999,999999,9999,283,1.29,0,0,9999,99999,9,999999999,999,0.999,0.0,99,0.2,0.0,0
2026,2,2,21,60,?9?9?9?9,-14.2,-18.0,74,99680,9999,9999,9999,0,0,0,999999,999999,999999,9999,298,1.81,0,0,9999,99999,9,999999999,999,0.999,0.0,99,0.2,0.0,0
2026,2,2,22,60,?9?9?9?9,-13.2,-16.8,75,99710,9999,9999,9999,0,0,0,999999,999999,999999,9999,317,2.58,0,0,9999,99999,9,999999999,999,0.999,0.0,99,0.2,0.0,0
2026,2,2,23,60,?9?9?9?9,-12.1,-15.7,75,99730,9999,9999,9999,0,0,0,999999,999999,999999,9999,334,2.95,0,0,9999,99999,9,999999999,999,0.999,0.0,99,0.2,0.0,0
2026,2,2,24,60,?9?9?9?9,-11.9,-15.4,76,99760,9999,9999,9999,0,0,0,999999,999999,999999,9999,341,3.18,0,0,9999,99999,9,999999999,999,0.999,0.0,99,0.2,0.0,0
2026,2,3,1,60,?9?9?9?9,-11.9,-15.1,77,99780,9999,9999,9999,0,0,0,999999,999999,999999,9999,341,3.43,0,0,9999,99999,9,999999999,999,0.999,0.0,99,0.2,0.0,0
2026,2,3,2,60,?9?9?9?9,-12.8,-16.6,73,99820,9999,9999,9999,0,0,0,999999,999999,999999,9999,332,2.59,0,0,9999,99999,9,999999999,999,0.999,0.0,99,0.2,0.0,0
2026,2,3,3,60,?9?9?9?9,-13.9,-17.6,74,99850,9999,9999,9999,0,0,0,999999,999999,999999,9999,333,2.12,2,2,9999,99999,9,999999999,999,0.999,0.0,99,0.2,0.0,0
2026,2,3,4,60,?9?9?9?9,-15.1,-18.3,77,99870,9999,9999,9999,0,0,0,999999,999999,999999,9999,335,1.88,10,10,9999,99999,9,999999999,999,0.999,0.0,99,0.2,0.0,0
2026,2,3,5,60,?9?9?9?9,-15.9,-18.8,79,99880,9999,9999,9999,0,0,0,999999,999999,999999,9999,335,0.94,10,10,9999,99999,9,999999999,999,0.999,0.0,99,0.2,0.0,0
2026,2,3,6,60,?9?9?9?9,-16.6,-19.4,79,99880,9999,9999,9999,0,0,0,999999,999999,999999,9999,331,0.51,10,10,9999,99999,9,999999999,999,0.999,0.0,99,0.2,0.0,0
2026,2,3,7,60,?9?9?9?9,-17.9,-20.5,80,99860,9999,9999,9999,0,0,0,999999,999999,999999,9999,325,1.04,10,10,9999,99999,9,999999999,999,0.999,0.0,99,0.2,0.0,0
2026,2,3,8,60,?9?9?9?9,-18.6,-20.9,82,99890,9999,9999,9999,0,0,0,999999,999999,999999,9999,349,1.53,3,3,9999,99999,9,999999999,999,0.999,0.0,99,0.2,0.0,0
2026,2,3,9,60,?9?9?9?9,-18.5,-20.9,81,99960,9999,9999,9999,26,165,14,999999,999999,999999,9999,345,0.57,10,10,9999,99999,9,999999999,999,0.999,0.0,99,0.2,0.0,0
2026,2,3,10,60,?9?9?9?9,-15.8,-20.0,70,100030,9999,9999,9999,146,418,69,999999,999999,999999,9999,45,0.07,10,10,9999,99999,9,999999999,999,0.999,0.0,99,0.2,0.0,0
2026,2,3,11,60,?9?9?9?9,-13.1,-18.5,64,100030,9999,9999,9999,281,548,112,999999,999999,999999,9999,121,0.29,10,10,9999,99999,9,999999999,999,0.999,0.0,99,0.2,0.0,0
2026,2,3,12,60,?9?9?9?9,-10.9,-17.6,58,100040,9999,9999,9999,396,697,119,999999,999999,999999,9999,133,0.81,9,9,9999,99999,9,999999999,999,0.999,0.0,99,0.2,0.0,0
2026,2,3,13,60,?9?9?9?9,-9.8,-16.4,59,100000,9999,9999,9999,462,779,115,999999,999999,999999,9999,146,1.51,10,10,9999,99999,9,999999999,999,0.999,0.0,99,0.2,0.0,0
2026,2,3,14,60,?9?9?9?9,-7.6,-13.9,60,99940,9999,9999,9999,456,703,140,999999,999999,999999,9999,168,1.43,8,8,9999,99999,9,999999999,999,0.999,0.0,99,0.2,0.0,0
2026,2,3,15,60,?9?9?9?9,-7.4,-13.4,62,99920,9999,9999,9999,407,690,125,999999,999999,999999,9999,172,1.51,5,5,9999,99999,9,999999999,999,0.999,0.0,99,0.2,0.0,0
2026,2,3,16,60,?9?9?9?9,-7.9,-13.2,66,99920,9999,9999,9999,320,730,82,999999,999999,999999,9999,169,1.32,6,6,9999,99999,9,999999999,999,0.999,0.0,99,0.2,0.0,0
2026,2,3,17,60,?9?9?9?9,-9.6,-13.8,71,99900,9999,9999,9999,182,583,61,999999,999999,999999,9999,167,0.92,5,5,9999,99999,9,999999999,999,0.999,0.0,99,0.2,0.0,0
2026,2,3,18,60,?9?9?9?9,-12.2,-15.2,78,99930,9999,9999,9999,41,232,21,999999,999999,999999,9999,177,0.95,10,10,9999,99999,9,999999999,999,0.999,0.0,99,0.2,0.0,0
2026,2,3,19,60,?9?9?9?9,-13.2,-15.9,80,99950,9999,9999,9999,0,0,0,999999,999999,999999,9999,235,0.61,10,10,9999,99999,9,999999999,999,0.999,0.0,99,0.2,0.0,0
2026,2,3,20,60,?9?9?9?9,-13.3,-16.0,80,99950,9999,9999,9999,0,0,0,999999,999999,999999,9999,270,1.2,10,10,9999,99999,9,999999999,999,0.999,0.0,99,0.2,0.0,0
2026,2,3,21,60,?9?9?9?9,-13.1,-15.9,79,99920,9999,9999,9999,0,0,0,999999,999999,999999,9999,281,1.27,10,10,9999,99999,9,999999999,999,0.999,0.0,99,0.2,0.0,0
2026,2,3,22,60,?9?9?9?9,-12.9,-15.6,80,99890,9999,9999,9999,0,0,0,999999,999999,999999,9999,261,0.96,10,10,9999,99999,9,999999999,999,0.999,0.0,99,0.2,0.0,0
2026,2,3,23,60,?9?9?9?9,-12.6,-14.9,83,99860,9999,9999,9999,0,0,0,999999,999999,999999,9999,249,0.7,10,10,9999,99999,9,999999999,999,0.999,0.0,99,0.2,0.0,0
2026,2,3,24,60,?9?9?9?9,-12.6,-14.5,85,99840,9999,9999,9999,0,0,0,999999,999999,999999,9999,255,0.57,10,10,9999,99999,9,999999999,999,0.999,0.0,99,0.2,0.0,0
2026,2,4,1,60,?9?9?9?9,-12.1,-13.9,86,99840,9999,9999,9999,0,0,0,999999,999999,999999,9999,222,0.6,10,10,9999,99999,9,999999999,999,0.999,0.0,99,0.2,0.0,0
2026,2,4,2,60,?9?9?9?9,-11.8,-13.7,85,99810,9999,9999,9999,0,0,0,999999,999999,999999,9999,162,0.32,10,10,9999,99999,9,999999999,999,0.999,0.001,99,0.2,0.1,1
2026,2,4,3,60,?9?9?9?9,-11.8,-13.5,87,99850,9999,9999,9999,0,0,0,999999,999999,999999,9999,18,0.16,10,10,9999,99999,9,999999999,999,0.999,0.001,99,0.2,0.1,1
2026,2,4,4,60,?9?9?9?9,-12.0,-13.5,89,99830,9999,9999,9999,0,0,0,999999,999999,999999,9999,360,0.2,10,10,9999,99999,9,999999999,999,0.999,0.001,99,0.2,0.1,1
2026,2,4,5,60,?9?9?9?9,-11.9,-13.4,89,99840,9999,9999,9999,0,0,0,999999,999999,999999,9999,7,0.4,10,10,9999,99999,9,999999999,999,0.999,0.001,99,0.2,0.1,1
2026,2,4,6,60,?9?9?9?9,-11.6,-13.1,88,99860,9999,9999,9999,0,0,0,999999,999999,999999,9999,6,0.45,10,10,9999,99999,9,999999999,999,0.999,0.001,99,0.2,0.2,1
2026,2,4,7,60,?9?9?9?9,-11.6,-13.4,87,99850,9999,9999,9999,0,0,0,999999,999999,999999,9999,339,0.43,10,10,9999,99999,9,999999999,999,0.999,0.001,99,0.2,0.2,1
2026,2,4,8,60,?9?9?9?9,-11.9,-13.4,89,99890,9999,9999,9999,0,0,0,999999,999999,999999,9999,308,1.14,10,10,9999,99999,9,999999999,999,0.999,0.001,99,0.2,0.1,1
2026,2,4,9,60,?9?9?9?9,-10.9,-12.7,87,99950,9999,9999,9999,19,13,18,999999,999999,999999,9999,334,1.83,10,10,9999,99999,9,999999999,999,0.999,0.001,99,0.2,0.1,1
2026,2,4,10,60,?9?9?9?9,-9.3,-12.8,76,99990,9999,9999,9999,110,64,98,999999,999999,999999,9999,343,1.52,10,10,9999,99999,9,999999999,999,0.999,0.0,99,0.2,0.0,0
2026,2,4,11,60,?9?9?9?9,-7.7,-12.6,68,100020,9999,9999,9999,234,221,165,999999,999999,999999,9999,337,1.68,9,9,9999,99999,9,999999999,999,0.999,0.0,99,0.2,0.0,0
2026,2,4,12,60,?9?9?9?9,-5.8,-12.8,58,100020,9999,9999,9999,377,552,155,999999,999999,999999,9999,330,1.61,4,4,9999,99999,9,999999999,999,0.999,0.0,99,0.2,0.0,0
2026,2,4,13,60,?9?9?9?9,-4.3,-13.1,51,99990,9999,9999,9999,474,831,100,999999,999999,999999,9999,325,1.47,1,1,9999,99999,9,999999999,999,0.999,0.0,99,0.2,0.0,0
2026,2,4,14,60,?9?9?9?9,-2.6,-12.2,47,99940,9999,9999,9999,483,870,88,999999,999999,999999,9999,293,1.41,0,0,9999,99999,9,999999999,999,0.999,0.0,99,0.2,0.0,0
2026,2,4,15,60,?9?9?9?9,-2.0,-11.8,47,99910,9999,9999,9999,432,844,83,999999,999999,999999,9999,258,1.23,1,1,9999,99999,9,999999999,999,0.999,0.0,99,0.2,0.0,0
2026,2,4,16,60,?9?9?9?9,-2.8,-11.1,53,99930,9999,9999,9999,328,765,75,999999,999999,999999,9999,228,1.27,1,1,9999,99999,9,999999999,999,0.999,0.0,99,0.2,0.0,0
2026,2,4,17,60,?9?9?9?9,-4.8,-10.0,67,99930,9999,9999,9999,188,622,56,999999,999999,999999,9999,206,1.27,0,0,9999,99999,9,999999999,999,0.999,0.0,99,0.2,0.0,0
2026,2,4,18,60,?9?9?9?9,-8.1,-11.3,78,99950,9999,9999,9999,46,305,19,999999,999999,999999,9999,246,1.21,1,1,9999,99999,9,999999999,999,0.999,0.0,99,0.2,0.0,0
2026,2,4,19,60,?9?9?9?9,-10.1,-13.6,76,99970,9999,9999,9999,0,0,0,999999,999999,999999,9999,299,2.28,5,5,9999,99999,9,999999999,999,0.999,0.0,99,0.2,0.0,0
2026,2,4,20,60,?9?9?9?9,-11.1,-14.4,76,99940,9999,9999,9999,0,0,0,999999,999999,999999,9999,309,1.92,10,10,9999,99999,9,999999999,999,0.999,0.0,99,0.2,0.0,0
2026,2,4,21,60,?9?9?9?9,-8.8,-12.1,77,99930,9999,9999,9999,0,0,0,999999,999999,999999,9999,316,3.08,10,10,9999,99999,9,999999999,999,0.999,0.0,99,0.2,0.0,0
2026,2,4,22,60,?9?9?9?9,-8.2,-11.8,76,99920,9999,9999,9999,0,0,0,999999,999999,999999,9999,315,3.61,10,10,9999,99999,9,999999999,999,0.999,0.0,99,0.2,0.0,0
2026,2,4,23,60,?9?9?9?9,-8.7,-12.0,77,99890,9999,9999,9999,0,0,0,999999,999999,999999,9999,320,3.34,10,10,9999,99999,9,999999999,999,0.999,0.0,99,0.2,0.0,0
2026,2,4,24,60,?9?9?9?9,-9.1,-11.9,79,99870,9999,9999,9999,0,0,0,999999,999999,999999,9999,324,2.83,10,10,9999,99999,9,999999999,999,0.999,0.0,99,0.2,0.0,0
2026,2,5,1,60,?9?9?9?9,-8.9,-11.7,80,99880,9999,9999,9999,0,0,0,999999,999999,999999,9999,301,1.64,10,10,9999,99999,9,999999999,999,0.999,0.001,99,0.2,0.2,1
2026,2,5,2,60,?9?9?9?9,-8.7,-10.9,84,99850,9999,9999,9999,0,0,0,999999,999999,999999,9999,243,1.01,10,10,9999,99999,9,999999999,999,0.999,0.002,99,0.2,0.3,1
2026,2,5,3,60,?9?9?9?9,-8.6,-10.6,86,99830,9999,9999,9999,0,0,0,999999,999999,999999,9999,291,1.66,10,10,9999,99999,9,999999999,999,0.999,0.003,99,0.2,0.4,1
2026,2,5,4,60,?9?9?9?9,-8.6,-11.0,83,99830,9999,9999,9999,0,0,0,999999,999999,999999,9999,314,2.58,10,10,9999,99999,9,999999999,999,0.999,0.003,99,0.2,0.4,1
2026,2,5,5,60,?9?9?9?9,-9.1,-12.1,78,99810,9999,9999,9999,0,0,0,999999,999999,999999,9999,321,3.09,9,9,9999,99999,9,999999999,999,0.999,0.001,99,0.2,0.2,1
2026,2,5,6,60,?9?9?9?9,-10.5,-13.8,77,99810,9999,9999,9999,0,0,0,999999,999999,999999,9999,321,3.34,4,4,9999,99999,9,999999999,999,0.999,0.0,99,0.2,0.0,0
2026,2,5,7,60,?9?9?9?9,-12.1,-15.2,77,99870,9999,9999,9999,0,0,0,999999,999999,999999,9999,318,3.43,3,3,9999,99999,9,999999999,999,0.999,0.0,99,0.2,0.0,0
2026,2,5,8,60,?9?9?9?9,-13.8,-16.6,79,99890,9999,9999,9999,0,0,0,999999,999999,999999,9999,326,3.79,0,0,9999,99999,9,999999999,999,0.999,0.0,99,0.2,0.0,0
2026,2,5,9,60,?9?9?9?9,-13.8,-17.4,75,99910,9999,9999,9999,32,234,14,999999,999999,999999,9999,329,3.43,1,1,9999,99999,9,999999999,999,0.999,0.0,99,0.2,0.0,0
2026,2,5,10,60,?9?9?9?9,-12.6,-17.9,65,99940,9999,9999,9999,176,650,51,999999,999999,999999,9999,330,2.2,0,0,9999,99999,9,999999999,999,0.999,0.0,99,0.2,0.0,0
2026,2,5,11,60,?9?9?9?9,-11.7,-18.1,59,99940,9999,9999,9999,323,783,75,999999,999999,999999,9999,336,3.49,3,3,9999,99999,9,999999999,999,0.999,0.0,99,0.2,0.0,0
2026,2,5,12,60,?9?9?9?9,-10.9,-17.9,57,99930,9999,9999,9999,428,802,102,999999,999999,999999,9999,325,2.62,6,6,9999,99999,9,999999999,999,0.999,0.0,99,0.2,0.0,0
2026,2,5,13,60,?9?9?9?9,-10.1,-17.8,53,99880,9999,9999,9999,494,858,104,999999,999999,999999,9999,318,2.16,7,7,9999,99999,9,999999999,999,0.999,0.0,99,0.2,0.0,0
2026,2,5,14,60,?9?9?9?9,-9.6,-18.1,50,99780,9999,9999,9999,500,872,100,999999,999999,999999,9999,311,2.13,8,8,9999,99999,9,999999999,999,0.999,0.0,99,0.2,0.0,0
2026,2,5,15,60,?9?9?9?9,-8.9,-18.5,46,99740,9999,9999,9999,450,859,91,999999,999999,999999,9999,298,1.19,3,3,9999,99999,9,999999999,999,0.999,0.0,99,0.2,0.0,0
2026,2,5,16,60,?9?9?9?9,-9.1,-18.4,47,99750,9999,9999,9999,344,784,81,999999,999999,999999,9999,273,1.0,9,9,9999,99999,9,999999999,999,0.999,0.0,99,0.2,0.0,0
2026,2,5,17,60,?9?9?9?9,-10.1,-18.9,48,99720,9999,9999,9999,201,656,59,999999,999999,999999,9999,228,0.6,5,5,9999,99999,9,999999999,999,0.999,0.0,99,0.2,0.0,0
2026,2,5,18,60,?9?9?9?9,-14.1,-18.9,67,99690,9999,9999,9999,52,352,20,999999,999999,999999,9999,184,1.55,0,0,9999,99999,9,999999999,999,0.999,0.0,99,0.2,0.0,0
2026,2,5,19,60,?9?9?9?9,-16.5,-19.4,79,99710,9999,9999,9999,0,0,0,999999,999999,999999,9999,205,1.99,0,0,9999,99999,9,999999999,999,0.999,0.0,99,0.2,0.0,0
2026,2,5,20,60,?9?9?9?9,-17.0,-20.2,76,99670,9999,9999,9999,0,0,0,999999,999999,999999,9999,255,1.39,0,0,9999,99999,9,999999999,999,0.999,0.0,99,0.2,0.0,0
2026,2,5,21,60,?9?9?9?9,-17.8,-20.8,77,99660,9999,9999,9999,0,0,0,999999,999999,999999,9999,268,1.25,0,0,9999,99999,9,999999999,999,0.999,0.0,99,0.2,0.0,0
2026,2,5,22,60,?9?9?9?9,-18.4,-21.2,78,99630,9999,9999,9999,0,0,0,999999,999999,999999,9999,270,1.15,0,0,9999,99999,9,999999999,999,0.999,0.0,99,0.2,0.0,0
2026,2,5,23,60,?9?9?9?9,-18.6,-21.4,79,99580,9999,9999,9999,0,0,0,999999,999999,999999,9999,294,0.6,0,0,9999,99999,9,999999999,999,0.999,0.0,99,0.2,0.0,0
2026,2,5,24,60,?9?9?9?9,-18.9,-21.5,80,99530,9999,9999,9999,0,0,0,999999,999999,999999,9999,333,0.22,0,0,9999,99999,9,999999999,999,0.999,0.0,99,0.2,0.0,0
2026,2,6,1,60,?9?9?9?9,-19.3,-21.5,83,99480,9999,9999,9999,0,0,0,999999,999999,999999,9999,360,0.1,0,0,9999,99999,9,999999999,999,0.999,0.0,99,0.2,0.0,0
2026,2,6,2,60,?9?9?9?9,-21.1,-23.5,81,99440,9999,9999,9999,0,0,0,999999,999999,999999,9999,48,0.6,0,0,9999,99999,9,999999999,999,0.999,0.0,99,0.2,0.0,0
2026,2,6,3,60,?9?9?9?9,-22.4,-24.2,84,99400,9999,9999,9999,0,0,0,999999,999999,999999,9999,67,0.76,0,0,9999,99999,9,999999999,999,0.999,0.0,99,0.2,0.0,0
2026,2,6,4,60,?9?9?9?9,-23.4,-24.9,87,99340,9999,9999,9999,0,0,0,999999,999999,999999,9999,55,0.79,0,0,9999,99999,9,999999999,999,0.999,0.0,99,0.2,0.0,0
2026,2,6,5,60,?9?9?9?9,-24.0,-25.5,88,99290,9999,9999,9999,0,0,0,999999,999999,999999,9999,49,0.99,1,1,9999,99999,9,999999999,999,0.999,0.0,99,0.2,0.0,0
2026,2,6,6,60,?9?9?9?9,-24.2,-25.9,86,99260,9999,9999,9999,0,0,0,999999,999999,999999,9999,28,1.07,2,2,9999,99999,9,999999999,999,0.999,0.0,99,0.2,0.0,0
2026,2,6,7,60,?9?9?9?9,-24.5,-26.1,86,99220,9999,9999,9999,0,0,0,999999,999999,999999,9999,20,1.33,1,1,9999,99999,9,999999999,999,0.999,0.0,99,0.2,0.0,0
2026,2,6,8,60,?9?9?9?9,-23.4,-25.1,86,99170,9999,9999,9999,0,0,0,999999,999999,999999,9999,53,1.93,4,4,9999,99999,9,999999999,999,0.999,0.0,99,0.2,0.0,0
2026,2,6,9,60,?9?9?9?9,-21.6,-24.0,81,99120,9999,9999,9999,29,164,16,999999,999999,999999,9999,52,2.21,2,2,9999,99999,9,999999999,999,0.999,0.0,99,0.2,0.0,0
2026,2,6,10,60,?9?9?9?9,-19.4,-23.6,69,99060,9999,9999,9999,172,601,54,999999,999999,999999,9999,46,1.87,2,2,9999,99999,9,999999999,999,0.999,0.0,99,0.2,0.0,0
2026,2,6,11,60,?9?9?9?9,-17.0,-22.5,63,99010,9999,9999,9999,315,738,78,999999,999999,999999,9999,59,2.11,2,2,9999,99999,9,999999999,999,0.999,0.0,99,0.2,0.0,0
2026,2,6,12,60,?9?9?9?9,-14.7,-20.9,59,98900,9999,9999,9999,427,818,91,999999,999999,999999,9999,69,1.93,6,6,9999,99999,9,999999999,999,0.999,0.0,99,0.2,0.0,0
2026,2,6,13,60,?9?9?9?9,-12.7,-19.8,56,98780,9999,9999,9999,476,777,119,999999,999999,999999,9999,83,1.92,10,10,9999,99999,9,999999999,999,0.999,0.0,99,0.2,0.0,0
2026,2,6,14,60,?9?9?9?9,-10.6,-18.1,54,98660,9999,9999,9999,431,500,199,999999,999999,999999,9999,92,1.9,10,10,9999,99999,9,999999999,999,0.999,0.0,99,0.2,0.0,0
2026,2,6,15,60,?9?9?9?9,-9.7,-17.6,53,98570,9999,9999,9999,389,511,173,999999,999999,999999,9999,78,1.74,10,10,9999,99999,9,999999999,999,0.999,0.0,99,0.2,0.0,0
2026,2,6,16,60,?9?9?9?9,-9.4,-17.1,54,98510,9999,9999,9999,285,373,158,999999,999999,999999,9999,78,1.64,10,10,9999,99999,9,999999999,999,0.999,0.0,99,0.2,0.0,0
2026,2,6,17,60,?9?9?9?9,-9.9,-16.7,58,98470,9999,9999,9999,153,190,111,999999,999999,999999,9999,83,1.66,10,10,9999,99999,9,999999999,999,0.999,0.0,99,0.2,0.0,0
2026,2,6,18,60,?9?9?9?9,-10.9,-15.8,67,98430,9999,9999,9999,28,11,27,999999,999999,999999,9999,84,2.31,10,10,9999,99999,9,999999999,999,0.999,0.0,99,0.2,0.0,0
2026,2,6,19,60,?9?9?9?9,-11.8,-15.7,73,98390,9999,9999,9999,0,0,0,999999,999999,999999,9999,74,2.23,10,10,9999,99999,9,999999999,999,0.999,0.0,99,0.2,0.0,0
2026,2,6,20,60,?9?9?9?9,-12.2,-16.1,73,98400,9999,9999,9999,0,0,0,999999,999999,999999,9999,63,2.19,10,10,9999,99999,9,999999999,999,0.999,0.0,99,0.2,0.0,0
2026,2,6,21,60,?9?9?9?9,-12.6,-16.2,74,98360,9999,9999,9999,0,0,0,999999,999999,999999,9999,58,2.43,10,10,9999,99999,9,999999999,999,0.999,0.0,99,0.2,0.0,0
2026,2,6,22,60,?9?9?9?9,-12.5,-15.9,76,98330,9999,9999,9999,0,0,0,999999,999999,999999,9999,47,2.33,10,10,9999,99999,9,999999999,999,0.999,0.001,99,0.2,0.1,1
2026,2,6,23,60,?9?9?9?9,-12.4,-15.4,78,98290,9999,9999,9999,0,0,0,999999,999999,999999,9999,42,2.55,10,10,9999,99999,9,999999999,999,0.999,0.001,99,0.2,0.1,1
2026,2,6,24,60,?9?9?9?9,-12.2,-15.2,78,98250,9999,9999,9999,0,0,0,999999,999999,999999,9999,38,2.74,10,10,9999,99999,9,999999999,999,0.999,0.001,99,0.2,0.1,1
2026,2,7,1,60,?9?9?9?9,-12.1,-14.9,79,98200,9999,9999,9999,0,0,0,999999,999999,999999,9999,37,2.68,10,10,9999,99999,9,999999999,999,0.999,0.001,99,0.2,0.1,1
2026,2,7,2,60,?9?9?9?9,-11.8,-14.4,80,98220,9999,9999,9999,0,0,0,999999,999999,999999,9999,35,2.87,10,10,9999,99999,9,999999999,999,0.999,0.001,99,0.2,0.1,1
2026,2,7,3,60,?9?9?9?9,-11.4,-14.1,81,98230,9999,9999,9999,0,0,0,999999,999999,999999,9999,34,3.09,10,10,9999,99999,9,999999999,999,0.999,0.001,99,0.2,0.2,1
2026,2,7,4,60,?9?9?9?9,-11.2,-13.8,81,98220,9999,9999,9999,0,0,0,999999,999999,999999,9999,27,3.15,10,10,9999,99999,9,999999999,999,0.999,0.002,99,0.2,0.3,1
2026,2,7,5,60,?9?9?9?9,-10.9,-13.6,80,98240,9999,9999,9999,0,0,0,999999,999999,999999,9999,16,3.43,10,10,9999,99999,9,999999999,999,0.999,0.002,99,0.2,0.3,1
2026,2,7,6,60,?9?9?9?9,-10.6,-13.6,79,98280,9999,9999,9999,0,0,0,999999,999999,999999,9999,3,4.26,10,10,9999,99999,9,999999999,999,0.999,0.003,99,0.2,0.4,1
2026,2,7,7,60,?9?9?9?9,-11.4,-14.2,79,98350,9999,9999,9999,0,0,0,999999,999999,999999,9999,345,5.43,10,10,9999,99999,9,999999999,999,0.999,0.003,99,0.2,0.4,1
2026,2,7,8,60,?9?9?9?9,-15.2,-19.1,72,98490,9999,9999,9999,0,0,0,999999,999999,999999,9999,335,5.95,10,10,9999,99999,9,999999999,999,0.999,0.001,99,0.2,0.2,1
2026,2,7,9,60,?9?9?9?9,-16.4,-20.5,70,98600,9999,9999,9999,16,0,16,999999,999999,999999,9999,339,6.14,10,10,9999,99999,9,999999999,999,0.999,0.001,99,0.2,0.2,1
2026,2,7,10,60,?9?9?9?9,-16.8,-21.4,68,98680,9999,9999,9999,89,15,86,999999,999999,999999,9999,340,6.39,10,10,9999,99999,9,999999999,999,0.999,0.001,99,0.2,0.2,1
2026,2,7,11,60,?9?9?9?9,-16.4,-21.6,64,98760,9999,9999,9999,176,25,168,999999,999999,999999,9999,339,6.36,10,10,9999,99999,9,999999999,999,0.999,0.001,99,0.2,0.2,1
2026,2,7,12,60,?9?9?9?9,-15.4,-21.2,61,98810,9999,9999,9999,263,48,243,999999,999999,999999,9999,340,6.34,10,10,9999,99999,9,999999999,999,0.999,0.001,99,0.2,0.1,1
2026,2,7,13,60,?9?9?9?9,-14.4,-20.9,58,98810,9999,9999,9999,324,90,282,999999,999999,999999,9999,338,6.1,10,10,9999,99999,9,999999999,999,0.999,0.001,99,0.2,0.1,1
2026,2,7,14,60,?9?9?9?9,-14.4,-21.0,57,98980,9999,9999,9999,304,62,275,999999,999999,999999,9999,335,6.0,10,10,9999,99999,9,999999999,999,0.999,0.001,99,0.2,0.1,1
2026,2,7,15,60,?9?9?9?9,-14.1,-21.0,56,99050,9999,9999,9999,273,58,248,999999,999999,999999,9999,334,6.11,10,10,9999,99999,9,999999999,999,0.999,0.001,99,0.2,0.1,1
2026,2,7,16,60,?9?9?9?9,-14.1,-20.9,57,99140,9999,9999,9999,195,23,187,999999,999999,999999,9999,333,5.95,10,10,9999,99999,9,999999999,999,0.999,0.001,99,0.2,0.1,1
2026,2,7,17,60,?9?9?9?9,-14.5,-20.9,59,99240,9999,9999,9999,107,4,106,999999,999999,999999,9999,331,5.73,10,10,9999,99999,9,999999999,999,0.999,0.001,99,0.2,0.1,1
2026,2,7,18,60,?9?9?9?9,-15.0,-20.8,62,99340,9999,9999,9999,33,0,33,999999,999999,999999,9999,331,5.93,10,10,9999,99999,9,999999999,999,0.999,0.001,99,0.2,0.1,1
2026,2,7,19,60,?9?9?9?9,-15.6,-21.1,63,99430,9999,9999,9999,0,0,0,999999,999999,999999,9999,333,6.15,10,10,9999,99999,9,999999999,999,0.999,0.0,99,0.2,0.0,0
2026,2,7,20,60,?9?9?9?9,-15.9,-21.4,63,99620,9999,9999,9999,0,0,0,999999,999999,999999,9999,329,5.81,10,10,9999,99999,9,999999999,999,0.999,0.0,99,0.2,0.0,0
2026,2,7,21,60,?9?9?9?9,-16.6,-21.9,64,99670,9999,9999,9999,0,0,0,999999,999999,999999,9999,332,6.13,10,10,9999,99999,9,999999999,999,0.999,0.0,99,0.2,0.0,0
2026,2,7,22,60,?9?9?9?9,-17.5,-22.6,65,99730,9999,9999,9999,0,0,0,999999,999999,999999,9999,334,6.33,10,10,9999,99999,9,999999999,999,0.999,0.0,99,0.2,0.0,0
2026,2,7,23,60,?9?9?9?9,-18.4,-23.4,65,99780,9999,9999,9999,0,0,0,999999,999999,999999,9999,336,6.31,10,10,9999,99999,9,999999999,999,0.999,0.0,99,0.2,0.0,0
2026,2,7,24,60,?9?9?9?9,-19.0,-23.8,66,99820,9999,9999,9999,0,0,0,999999,999999,999999,9999,338,6.32,10,10,9999,99999,9,999999999,999,0.999,0.0,99,0.2,0.0,0
2026,2,8,1,60,?9?9?9?9,-19.5,-24.4,65,99830,9999,9999,9999,0,0,0,999999,999999,999999,9999,338,6.3,10,10,9999,99999,9,999999999,999,0.999,0.0,99,0.2,0.0,0
2026,2,8,2,60,?9?9?9?9,-19.0,-24.4,63,99900,9999,9999,9999,0,0,0,999999,999999,999999,9999,338,5.78,9,9,9999,99999,9,999999999,999,0.999,0.0,99,0.2,0.0,0
2026,2,8,3,60,?9?9?9?9,-19.7,-25.0,63,99940,9999,9999,9999,0,0,0,999999,999999,999999,9999,336,5.62,9,9,9999,99999,9,999999999,999,0.999,0.0,99,0.2,0.0,0
2026,2,8,4,60,?9?9?9?9,-20.2,-25.2,65,99970,9999,9999,9999,0,0,0,999999,999999,999999,9999,336,5.69,6,6,9999,99999,9,999999999,999,0.999,0.0,99,0.2,0.0,0
2026,2,8,5,60,?9?9?9?9,-20.7,-25.4,66,100010,9999,9999,9999,0,0,0,999999,999999,999999,9999,336,5.86,3,3,9999,99999,9,999999999,999,0.999,0.0,99,0.2,0.0,0
2026,2,8,6,60,?9?9?9?9,-21.1,-25.7,66,100020,9999,9999,9999,0,0,0,999999,999999,999999,9999,336,6.13,4,4,9999,99999,9,999999999,999,0.999,0.0,99,0.2,0.0,0
2026,2,8,7,60,?9?9?9?9,-21.5,-26.0,67,100030,9999,9999,9999,0,0,0,999999,999999,999999,9999,336,6.38,10,10,9999,99999,9,999999999,999,0.999,0.0,99,0.2,0.0,0
2026,2,8,8,60,?9?9?9?9,-21.5,-26.3,65,100160,9999,9999,9999,0,0,0,999999,999999,999999,9999,337,5.76,6,6,9999,99999,9,999999999,999,0.999,0.0,99,0.2,0.0,0
2026,2,8,9,60,?9?9?9?9,-21.1,-26.4,63,100210,9999,9999,9999,37,228,18,999999,999999,999999,9999,337,5.6,4,4,9999,99999,9,999999999,999,0.999,0.0,99,0.2,0.0,0
2026,2,8,10,60,?9?9?9?9,-20.2,-26.2,58,100240,9999,9999,9999,182,605,58,999999,999999,999999,9999,333,3.94,10,10,9999,99999,9,999999999,999,0.999,0.0,99,0.2,0.0,0
2026,2,8,11,60,?9?9?9?9,-18.7,-25.4,56,100240,9999,9999,9999,302,542,123,999999,999999,999999,9999,333,4.65,10,10,9999,99999,9,999999999,999,0.999,0.0,99,0.2,0.0,0
2026,2,8,12,60,?9?9?9?9,-16.7,-24.1,53,100240,9999,9999,9999,410,614,152,999999,999999,999999,9999,331,4.41,8,8,9999,99999,9,999999999,999,0.999,0.0,99,0.2,0.0,0
2026,2,8,13,60,?9?9?9?9,-14.6,-22.8,50,100180,9999,9999,9999,500,840,106,999999,999999,999999,9999,329,4.12,4,4,9999,99999,9,999999999,999,0.999,0.0,99,0.2,0.0,0
2026,2,8,14,60,?9?9?9?9,-13.6,-22.1,49,100220,9999,9999,9999,510,873,97,999999,999999,999999,9999,325,3.7,0,0,9999,99999,9,999999999,999,0.999,0.0,99,0.2,0.0,0
2026,2,8,15,60,?9?9?9?9,-12.1,-21.0,48,100190,9999,9999,9999,461,867,86,999999,999999,999999,9999,321,3.45,0,0,9999,99999,9,999999999,999,0.999,0.0,99,0.2,0.0,0
2026,2,8,16,60,?9?9?9?9,-11.1,-19.8,48,100200,9999,9999,9999,357,807,75,999999,999999,999999,9999,317,3.33,0,0,9999,99999,9,999999999,999,0.999,0.0,99,0.2,0.0,0
2026,2,8,17,60,?9?9?9?9,-11.0,-18.9,52,100250,9999,9999,9999,213,677,57,999999,999999,999999,9999,316,2.97,0,0,9999,99999,9,999999999,999,0.999,0.0,99,0.2,0.0,0
2026,2,8,18,60,?9?9?9?9,-12.4,-18.8,59,100290,9999,9999,9999,60,388,22,999999,999999,999999,9999,317,3.47,0,0,9999,99999,9,999999999,999,0.999,0.0,99,0.2,0.0,0
2026,2,8,19,60,?9?9?9?9,-13.2,-18.9,63,100350,9999,9999,9999,0,0,0,999999,999999,999999,9999,323,4.07,0,0,9999,99999,9,999999999,999,0.999,0.0,99,0.2,0.0,0
2026,2,8,20,60,?9?9?9?9,-15.1,-20.5,64,100460,9999,9999,9999,0,0,0,999999,999999,999999,9999,315,4.28,0,0,9999,99999,9,999999999,999,0.999,0.0,99,0.2,0.0,0
2026,2,8,21,60,?9?9?9?9,-15.2,-20.7,63,100490,9999,9999,9999,0,0,0,999999,999999,999999,9999,323,4.61,0,0,9999,99999,9,999999999,999,0.999,0.0,99,0.2,0.0,0
2026,2,8,22,60,?9?9?9?9,-15.8,-20.9,65,100510,9999,9999,9999,0,0,0,999999,999999,999999,9999,326,4.53,0,0,9999,99999,9,999999999,999,0.999,0.0,99,0.2,0.0,0
2026,2,8,23,60,?9?9?9?9,-16.2,-21.0,67,100510,9999,9999,9999,0,0,0,999999,999999,999999,9999,325,4.2,0,0,9999,99999,9,999999999,999,0.999,0.0,99,0.2,0.0,0
2026,2,8,24,60,?9?9?9?9,-16.7,-21.1,69,100490,9999,9999,9999,0,0,0,999999,999999,999999,9999,325,3.98,0,0,9999,99999,9,999999999,999,0.999,0.0,99,0.2,0.0,0
2026,2,9,1,60,?9?9?9?9,-17.0,-21.2,70,100470,9999,9999,9999,0,0,0,999999,999999,999999,9999,324,3.79,0,0,9999,99999,9,999999999,999,0.999,0.0,99,0.2,0.0,0
2026,2,9,2,60,?9?9?9?9,-17.4,-22.0,68,100470,9999,9999,9999,0,0,0,999999,999999,999999,9999,324,4.54,0,0,9999,99999,9,999999999,999,0.999,0.0,99,0.2,0.0,0
2026,2,9,3,60,?9?9?9?9,-17.6,-22.2,68,100500,9999,9999,9999,0,0,0,999999,999999,999999,9999,323,4.18,0,0,9999,99999,9,999999999,999,0.999,0.0,99,0.2,0.0,0
2026,2,9,4,60,?9?9?9?9,-18.2,-22.5,70,100480,9999,9999,9999,0,0,0,999999,999999,999999,9999,322,3.81,0,0,9999,99999,9,999999999,999,0.999,0.0,99,0.2,0.0,0
2026,2,9,5,60,?9?9?9?9,-18.8,-22.6,71,100480,9999,9999,9999,0,0,0,999999,999999,999999,9999,322,3.85,0,0,9999,99999,9,999999999,999,0.999,0.0,99,0.2,0.0,0
2026,2,9,6,60,?9?9?9?9,-19.0,-22.9,71,100500,9999,9999,9999,0,0,0,999999,999999,999999,9999,324,3.97,4,4,9999,99999,9,999999999,999,0.999,0.0,99,0.2,0.0,0
2026,2,9,7,60,?9?9?9?9,-19.1,-23.0,71,100500,9999,9999,9999,0,0,0,999999,999999,999999,9999,323,4.03,4,4,9999,99999,9,999999999,999,0.999,0.0,99,0.2,0.0,0
2026,2,9,8,60,?9?9?9?9,-19.0,-23.0,70,100570,9999,9999,9999,0,0,0,999999,999999,999999,9999,326,5.03,5,5,9999,99999,9,999999999,999,0.999,0.0,99,0.2,0.0,0
2026,2,9,9,60,?9?9?9?9,-18.2,-22.8,68,100600,9999,9999,9999,35,175,20,999999,999999,999999,9999,327,5.24,6,6,9999,99999,9,999999999,999,0.999,0.0,99,0.2,0.0,0
2026,2,9,10,60,?9?9?9?9,-17.1,-22.5,63,100580,9999,9999,9999,146,330,77,999999,999999,999999,9999,330,4.39,5,5,9999,99999,9,999999999,999,0.999,0.0,99,0.2,0.0,0
2026,2,9,11,60,?9?9?9?9,-15.1,-21.6,57,100550,9999,9999,9999,308,580,114,999999,999999,999999,9999,328,4.56,6,6,9999,99999,9,999999999,999,0.999,0.0,99,0.2,0.0,0
2026,2,9,12,60,?9?9?9?9,-12.8,-20.5,52,100510,9999,9999,9999,410,628,143,999999,999999,999999,9999,320,3.48,5,5,9999,99999,9,999999999,999,0.999,0.0,99,0.2,0.0,0
2026,2,9,13,60,?9?9?9?9,-10.6,-19.4,49,100420,9999,9999,9999,494,777,126,999999,999999,999999,9999,318,2.97,4,4,9999,99999,9,999999999,999,0.999,0.0,99,0.2,0.0,0
2026,2,9,14,60,?9?9?9?9,-8.8,-18.4,46,100350,9999,9999,9999,506,839,105,999999,999999,999999,9999,309,2.84,2,2,9999,99999,9,999999999,999,0.999,0.0,99,0.2,0.0,0
2026,2,9,15,60,?9?9?9?9,-7.2,-17.5,43,100270,9999,9999,9999,459,837,93,999999,999999,999999,9999,306,2.22,0,0,9999,99999,9,999999999,999,0.999,0.0,99,0.2,0.0,0
2026,2,9,16,60,?9?9?9?9,-6.8,-16.8,45,100220,9999,9999,9999,358,796,76,999999,999999,999999,9999,290,1.17,0,0,9999,99999,9,999999999,999,0.999,0.0,99,0.2,0.0,0
2026,2,9,17,60,?9?9?9?9,-8.1,-17.2,48,100180,9999,9999,9999,215,668,58,999999,999999,999999,9999,227,0.81,0,0,9999,99999,9,999999999,999,0.999,0.0,99,0.2,0.0,0
2026,2,9,18,60,?9?9?9?9,-11.8,-16.9,66,100200,9999,9999,9999,63,389,24,999999,999999,999999,9999,211,1.28,0,0,9999,99999,9,999999999,999,0.999,0.0,99,0.2,0.0,0
2026,2,9,19,60,?9?9?9?9,-14.1,-18.1,71,100230,9999,9999,9999,0,0,0,999999,999999,999999,9999,261,1.62,0,0,9999,99999,9,999999999,999,0.999,0.0,99,0.2,0.0,0
2026,2,9,20,60,?9?9?9?9,-15.9,-20.4,68,100240,9999,9999,9999,0,0,0,999999,999999,999999,9999,297,1.63,3,3,9999,99999,9,999999999,999,0.999,0.0,99,0.2,0.0,0
2026,2,9,21,60,?9?9?9?9,-15.8,-20.4,68,100220,9999,9999,9999,0,0,0,999999,999999,999999,9999,307,1.82,8,8,9999,99999,9,999999999,999,0.999,0.0,99,0.2,0.0,0
2026,2,9,22,60,?9?9?9?9,-15.8,-20.2,69,100210,9999,9999,9999,0,0,0,999999,999999,999999,9999,310,1.63,10,10,9999,99999,9,999999999,999,0.999,0.0,99,0.2,0.0,0
2026,2,9,23,60,?9?9?9?9,-15.3,-19.9,68,100200,9999,9999,9999,0,0,0,999999,999999,999999,9999,313,2.51,10,10,9999,99999,9,999999999,999,0.999,0.0,99,0.2,0.0,0
2026,2,9,24,60,?9?9?9?9,-14.4,-19.1,67,100180,9999,9999,9999,0,0,0,999999,999999,999999,9999,323,3.25,10,10,9999,99999,9,999999999,999,0.999,0.0,99,0.2,0.0,0
2026,2,10,1,60,?9?9?9?9,-14.6,-19.0,69,100140,9999,9999,9999,0,0,0,999999,999999,999999,9999,329,2.92,6,6,9999,99999,9,999999999,999,0.999,0.0,99,0.2,0.0,0
2026,2,10,2,60,?9?9?9?9,-15.3,-19.8,68,100140,9999,9999,9999,0,0,0,999999,999999,999999,9999,328,2.9,4,4,9999,99999,9,999999999,999,0.999,0.0,99,0.2,0.0,0
2026,2,10,3,60,?9?9?9?9,-15.7,-20.1,69,100170,9999,9999,9999,0,0,0,999999,999999,999999,9999,334,2.17,2,2,9999,99999,9,999999999,999,0.999,0.0,99,0.2,0.0,0
2026,2,10,4,60,?9?9?9?9,-17.0,-21.2,70,100190,9999,9999,9999,0,0,0,999999,999999,999999,9999,331,1.14,2,2,9999,99999,9,999999999,999,0.999,0.0,99,0.2,0.0,0
2026,2,10,5,60,?9?9?9?9,-17.5,-21.5,70,100150,9999,9999,9999,0,0,0,999999,999999,999999,9999,336,1.21,2,2,9999,99999,9,999999999,999,0.999,0.0,99,0.2,0.0,0
2026,2,10,6,60,?9?9?9?9,-18.4,-22.0,73,100100,9999,9999,9999,0,0,0,999999,999999,999999,9999,330,1.9,1,1,9999,99999,9,999999999,999,0.999,0.0,99,0.2,0.0,0
2026,2,10,7,60,?9?9?9?9,-18.9,-22.4,74,100100,9999,9999,9999,0,0,0,999999,999999,999999,9999,315,1.84,1,1,9999,99999,9,999999999,999,0.999,0.0,99,0.2,0.0,0
2026,2,10,8,60,?9?9?9?9,-19.1,-22.4,75,100100,9999,9999,9999,0,0,0,999999,999999,999999,9999,334,1.5,0,0,9999,99999,9,999999999,999,0.999,0.0,99,0.2,0.0,0
2026,2,10,9,60,?9?9?9?9,-18.1,-21.5,75,100100,9999,9999,9999,42,273,18,999999,999999,999999,9999,337,0.76,1,1,9999,99999,9,999999999,999,0.999,0.0,99,0.2,0.0,0
2026,2,10,10,60,?9?9?9?9,-14.5,-20.7,59,100110,9999,9999,9999,189,627,55,999999,999999,999999,9999,180,0.05,1,1,9999,99999,9,999999999,999,0.999,0.0,99,0.2,0.0,0
2026,2,10,11,60,?9?9?9?9,-12.1,-20.0,51,100030,9999,9999,9999,323,690,89,999999,999999,999999,9999,141,0.71,9,9,9999,99999,9,999999999,999,0.999,0.0,99,0.2,0.0,0
2026,2,10,12,60,?9?9?9?9,-10.6,-19.0,50,99940,9999,9999,9999,422,684,128,999999,999999,999999,9999,161,1.22,0,0,9999,99999,9,999999999,999,0.999,0.0,99,0.2,0.0,0
2026,2,10,13,60,?9?9?9?9,-9.4,-18.5,48,99820,9999,9999,9999,512,888,87,999999,999999,999999,9999,160,1.33,10,10,9999,99999,9,999999999,999,0.999,0.0,99,0.2,0.0,0
2026,2,10,14,60,?9?9?9?9,-7.9,-17.8,45,99700,9999,9999,9999,444,489,208,999999,999999,999999,9999,145,1.58,10,10,9999,99999,9,999999999,999,0.999,0.0,99,0.2,0.0,0
2026,2,10,15,60,?9?9?9?9,-7.6,-17.0,47,99560,9999,9999,9999,370,412,188,999999,999999,999999,9999,140,1.7,10,10,9999,99999,9,999999999,999,0.999,0.0,99,0.2,0.0,0
2026,2,10,16,60,?9?9?9?9,-8.1,-16.4,52,99470,9999,9999,9999,192,6,190,999999,999999,999999,9999,123,1.48,10,10,9999,99999,9,999999999,999,0.999,0.0,99,0.2,0.0,0
2026,2,10,17,60,?9?9?9?9,-8.4,-15.6,56,99340,9999,9999,9999,121,54,108,999999,999999,999999,9999,100,1.37,10,10,9999,99999,9,999999999,999,0.999,0.0,99,0.2,0.0,0
2026,2,10,18,60,?9?9?9?9,-8.9,-14.1,67,99270,9999,9999,9999,27,0,27,999999,999999,999999,9999,62,1.19,10,10,9999,99999,9,999999999,999,0.999,0.001,99,0.2,0.1,1
2026,2,10,19,60,?9?9?9?9,-9.4,-13.4,72,99180,9999,9999,9999,0,0,0,999999,999999,999999,9999,42,2.09,10,10,9999,99999,9,999999999,999,0.999,0.001,99,0.2,0.2,1
2026,2,10,20,60,?9?9?9?9,-9.4,-13.2,74,99040,9999,9999,9999,0,0,0,999999,999999,999999,9999,50,2.7,10,10,9999,99999,9,999999999,999,0.999,0.003,99,0.2,0.5,1
2026,2,10,21,60,?9?9?9?9,-9.1,-12.4,77,98920,9999,9999,9999,0,0,0,999999,999999,999999,9999,48,3.01,10,10,9999,99999,9,999999999,999,0.999,0.007,99,0.2,1.0,1
2026,2,10,22,60,?9?9?9?9,-8.9,-11.5,81,98830,9999,9999,9999,0,0,0,999999,999999,999999,9999,59,3.32,10,10,9999,99999,9,999999999,999,0.999,0.008,99,0.2,1.1,1
2026,2,10,23,60,?9?9?9?9,-8.8,-10.9,84,98700,9999,9999,9999,0,0,0,999999,999999,999999,9999,65,3.6,10,10,9999,99999,9,999999999,999,0.999,0.008,99,0.2,1.2,1
2026,2,10,24,60,?9?9?9?9,-8.6,-10.6,85,98620,9999,9999,9999,0,0,0,999999,999999,999999,9999,62,3.47,10,10,9999,99999,9,999999999,999,0.999,0.006,99,0.2,0.9,1
2026,2,11,1,60,?9?9?9?9,-8.4,-10.1,87,98540,9999,9999,9999,0,0,0,999999,999999,999999,9999,56,2.88,10,10,9999,99999,9,999999999,999,0.999,0.002,99,0.2,0.3,1
2026,2,11,2,60,?9?9?9?9,-8.1,-9.6,89,98470,9999,9999,9999,0,0,0,999999,999999,999999,9999,46,2.37,10,10,9999,99999,9,999999999,999,0.999,0.001,99,0.2,0.2,1
2026,2,11,3,60,?9?9?9?9,-7.9,-9.2,90,98420,9999,9999,9999,0,0,0,999999,999999,999999,9999,21,2.09,10,10,9999,99999,9,999999999,999,0.999,0.001,99,0.2,0.2,1
2026,2,11,4,60,?9?9?9?9,-7.7,-8.9,90,98380,9999,9999,9999,0,0,0,999999,999999,999999,9999,357,2.1,10,10,9999,99999,9,999999999,999,0.999,0.001,99,0.2,0.2,1
2026,2,11,5,60,?9?9?9?9,-7.4,-8.7,91,98360,9999,9999,9999,0,0,0,999999,999999,999999,9999,351,2.13,10,10,9999,99999,9,999999999,999,0.999,0.001,99,0.2,0.2,1
2026,2,11,6,60,?9?9?9?9,-7.2,-8.5,90,98330,9999,9999,9999,0,0,0,999999,999999,999999,9999,353,2.11,10,10,9999,99999,9,999999999,999,0.999,0.001,99,0.2,0.2,1
2026,2,11,7,60,?9?9?9?9,-7.0,-8.4,90,98290,9999,9999,9999,0,0,0,999999,999999,999999,9999,356,2.3,10,10,9999,99999,9,999999999,999,0.999,0.001,99,0.2,0.2,1
2026,2,11,8,60,?9?9?9?9,-7.1,-8.6,88,98350,9999,9999,9999,0,0,0,999999,999999,999999,9999,345,2.28,10,10,9999,99999,9,999999999,999,0.999,0.001,99,0.2,0.2,1
2026,2,11,9,60,?9?9?9?9,-6.6,-8.6,86,98380,9999,9999,9999,14,0,14,999999,999999,999999,9999,345,2.17,10,10,9999,99999,9,999999999,999,0.999,0.001,99,0.2,0.2,1
2026,2,11,10,60,?9?9?9?9,-5.6,-8.2,82,98390,9999,9999,9999,73,9,71,999999,999999,999999,9999,359,2.2,10,10,9999,99999,9,999999999,999,0.999,0.002,99,0.2,0.3,1
2026,2,11,11,60,?9?9?9?9,-4.9,-7.9,79,98370,9999,9999,9999,117,0,117,999999,999999,999999,9999,8,2.47,10,10,9999,99999,9,999999999,999,0.999,0.001,99,0.2,0.2,1
2026,2,11,12,60,?9?9?9?9,-4.2,-7.7,77,98380,9999,9999,9999,175,2,174,999999,999999,999999,9999,18,2.99,10,10,9999,99999,9,999999999,999,0.999,0.001,99,0.2,0.1,1
2026,2,11,13,60,?9?9?9?9,-4.0,-7.7,75,98340,9999,9999,9999,189,6,186,999999,999999,999999,9999,22,2.8,10,10,9999,99999,9,999999999,999,0.999,0.001,99,0.2,0.1,1
2026,2,11,14,60,?9?9?9?9,-3.5,-7.9,71,98390,9999,9999,9999,264,53,238,999999,999999,999999,9999,17,2.77,10,10,9999,99999,9,999999999,999,0.999,0.001,99,0.2,0.1,1
2026,2,11,15,60,?9?9?9?9,-3.5,-8.2,70,98410,9999,9999,9999,171,0,171,999999,999999,999999,9999,355,3.16,10,10,9999,99999,9,999999999,999,0.999,0.001,99,0.2,0.1,1
2026,2,11,16,60,?9?9?9?9,-3.8,-9.0,67,98480,9999,9999,9999,191,88,159,999999,999999,999999,9999,343,3.56,10,10,9999,99999,9,999999999,999,0.999,0.0,99,0.2,0.0,0
2026,2,11,17,60,?9?9?9?9,-4.2,-8.9,70,98560,9999,9999,9999,144,111,117,999999,999999,999999,9999,343,3.5,10,10,9999,99999,9,999999999,999,0.999,0.0,99,0.2,0.0,0
2026,2,11,18,60,?9?9?9?9,-4.5,-8.5,74,98610,9999,9999,9999,41,19,39,999999,999999,999999,9999,334,3.51,10,10,9999,99999,9,999999999,999,0.999,0.001,99,0.2,0.1,1
2026,2,11,19,60,?9?9?9?9,-4.7,-8.6,74,98680,9999,9999,9999,0,0,0,999999,999999,999999,9999,340,4.48,10,10,9999,99999,9,999999999,999,0.999,0.0,99,0.2,0.0,0
2026,2,11,20,60,?9?9?9?9,-5.7,-9.1,77,98790,9999,9999,9999,0,0,0,999999,999999,999999,9999,342,5.11,10,10,9999,99999,9,999999999,999,0.999,0.0,99,0.2,0.0,0
2026,2,11,21,60,?9?9?9?9,-6.1,-9.6,77,98850,9999,9999,9999,0,0,0,999999,999999,999999,9999,347,5.49,10,10,9999,99999,9,999999999,999,0.999,0.0,99,0.2,0.0,0
2026,2,11,22,60,?9?9?9?9,-6.8,-10.0,78,98910,9999,9999,9999,0,0,0,999999,999999,999999,9999,351,5.57,10,10,9999,99999,9,999999999,999,0.999,0.0,99,0.2,0.0,0
2026,2,11,23,60,?9?9?9?9,-7.4,-10.4,80,98930,9999,9999,9999,0,0,0,999999,999999,999999,9999,350,5.07,9,9,9999,99999,9,999999999,999,0.999,0.0,99,0.2,0.0,0
2026,2,11,24,60,?9?9?9?9,-7.6,-10.2,81,98980,9999,9999,9999,0,0,0,999999,999999,999999,9999,347,4.82,10,10,9999,99999,9,999999999,999,0.999,0.0,99,0.2,0.0,0
2026,2,12,1,60,?9?9?9?9,-7.3,-10.0,81,99000,9999,9999,9999,0,0,0,999999,999999,999999,9999,345,5.07,7,7,9999,99999,9,999999999,999,0.999,0.0,99,0.2,0.0,0
2026,2,12,2,60,?9?9?9?9,-8.1,-10.4,83,99070,9999,9999,9999,0,0,0,999999,999999,999999,9999,340,5.22,6,6,9999,99999,9,999999999,999,0.999,0.0,99,0.2,0.0,0
2026,2,12,3,60,?9?9?9?9,-7.9,-10.4,82,99120,9999,9999,9999,0,0,0,999999,999999,999999,9999,340,5.0,8,8,9999,99999,9,999999999,999,0.999,0.0,99,0.2,0.0,0
2026,2,12,4,60,?9?9?9?9,-7.9,-10.6,81,99150,9999,9999,9999,0,0,0,999999,999999,999999,9999,345,5.23,2,2,9999,99999,9,999999999,999,0.999,0.0,99,0.2,0.0,0
2026,2,12,5,60,?9?9?9?9,-8.6,-11.6,79,99180,9999,9999,9999,0,0,0,999999,999999,999999,9999,347,5.54,0,0,9999,99999,9,999999999,999,0.999,0.0,99,0.2,0.0,0
2026,2,12,6,60,?9?9?9?9,-9.9,-13.0,78,99230,9999,9999,9999,0,0,0,999999,999999,999999,9999,347,5.9,1,1,9999,99999,9,999999999,999,0.999,0.0,99,0.2,0.0,0
2026,2,12,7,60,?9?9?9?9,-11.1,-14.3,77,99270,9999,9999,9999,0,0,0,999999,999999,999999,9999,342,6.04,2,2,9999,99999,9,999999999,999,0.999,0.0,99,0.2,0.0,0
2026,2,12,8,60,?9?9?9?9,-11.2,-14.6,77,99390,9999,9999,9999,0,0,0,999999,999999,999999,9999,344,6.0,3,3,9999,99999,9,999999999,999,0.999,0.0,99,0.2,0.0,0
2026,2,12,9,60,?9?9?9?9,-11.5,-15.6,72,99470,9999,9999,9999,48,292,21,999999,999999,999999,9999,341,5.96,3,3,9999,99999,9,999999999,999,0.999,0.0,99,0.2,0.0,0
2026,2,12,10,60,?9?9?9?9,-11.1,-16.2,66,99530,9999,9999,9999,198,610,62,999999,999999,999999,9999,342,5.52,3,3,9999,99999,9,999999999,999,0.999,0.0,99,0.2,0.0,0
2026,2,12,11,60,?9?9?9?9,-10.2,-17.0,58,99570,9999,9999,9999,350,771,81,999999,999999,999999,9999,340,5.79,0,0,9999,99999,9,999999999,999,0.999,0.0,99,0.2,0.0,0
2026,2,12,12,60,?9?9?9?9,-9.1,-17.8,49,99590,9999,9999,9999,471,874,87,999999,999999,999999,9999,343,5.65,0,0,9999,99999,9,999999999,999,0.999,0.0,99,0.2,0.0,0
2026,2,12,13,60,?9?9?9?9,-7.7,-17.9,44,99550,9999,9999,9999,541,923,90,999999,999999,999999,9999,339,5.26,0,0,9999,99999,9,999999999,999,0.999,0.0,99,0.2,0.0,0
2026,2,12,14,60,?9?9?9?9,-5.8,-16.4,43,99540,9999,9999,9999,545,921,91,999999,999999,999999,9999,336,4.75,2,2,9999,99999,9,999999999,999,0.999,0.0,99,0.2,0.0,0
2026,2,12,15,60,?9?9?9?9,-4.5,-15.5,42,99550,9999,9999,9999,488,885,88,999999,999999,999999,9999,332,4.03,0,0,9999,99999,9,999999999,999,0.999,0.0,99,0.2,0.0,0
2026,2,12,16,60,?9?9?9?9,-4.2,-14.3,45,99570,9999,9999,9999,381,822,78,999999,999999,999999,9999,334,4.0,0,0,9999,99999,9,999999999,999,0.999,0.0,99,0.2,0.0,0
2026,2,12,17,60,?9?9?9?9,-4.6,-13.3,51,99600,9999,9999,9999,236,708,60,999999,999999,999999,9999,333,3.6,0,0,9999,99999,9,999999999,999,0.999,0.0,99,0.2,0.0,0
2026,2,12,18,60,?9?9?9?9,-6.0,-12.9,58,99640,9999,9999,9999,77,456,28,999999,999999,999999,9999,330,3.52,0,0,9999,99999,9,999999999,999,0.999,0.0,99,0.2,0.0,0
2026,2,12,19,60,?9?9?9?9,-7.2,-12.7,65,99700,9999,9999,9999,1,0,1,999999,999999,999999,9999,325,3.52,0,0,9999,99999,9,999999999,999,0.999,0.0,99,0.2,0.0,0
2026,2,12,20,60,?9?9?9?9,-9.1,-13.4,71,99740,9999,9999,9999,0,0,0,999999,999999,999999,9999,315,3.11,0,0,9999,99999,9,999999999,999,0.999,0.0,99,0.2,0.0,0
2026,2,12,21,60,?9?9?9?9,-7.9,-12.4,70,99740,9999,9999,9999,0,0,0,999999,999999,999999,9999,331,4.27,1,1,9999,99999,9,999999999,999,0.999,0.0,99,0.2,0.0,0
2026,2,12,22,60,?9?9?9?9,-7.9,-12.7,68,99790,9999,9999,9999,0,0,0,999999,999999,999999,9999,337,5.0,3,3,9999,99999,9,999999999,999,0.999,0.0,99,0.2,0.0,0
2026,2,12,23,60,?9?9?9?9,-8.5,-13.0,70,99820,9999,9999,9999,0,0,0,999999,999999,999999,9999,337,4.93,7,7,9999,99999,9,999999999,999,0.999,0.0,99,0.2,0.0,0
2026,2,12,24,60,?9?9?9?9,-9.2,-13.3,72,99840,9999,9999,9999,0,0,0,999999,999999,999999,9999,338,4.89,5,5,9999,99999,9,999999999,999,0.999,0.0,99,0.2,0.0,0
2026,2,13,1,60,?9?9?9?9,-9.9,-13.7,74,99860,9999,9999,9999,0,0,0,999999,999999,999999,9999,339,4.94,6,6,9999,99999,9,999999999,999,0.999,0.0,99,0.2,0.0,0
2026,2,13,2,60,?9?9?9?9,-10.8,-14.7,73,99890,9999,9999,9999,0,0,0,999999,999999,999999,9999,330,4.17,3,3,9999,99999,9,999999999,999,0.999,0.0,99,0.2,0.0,0
2026,2,13,3,60,?9?9?9?9,-11.3,-14.9,75,99940,9999,9999,9999,0,0,0,999999,999999,999999,9999,324,3.47,4,4,9999,99999,9,999999999,999,0.999,0.0,99,0.2,0.0,0
2026,2,13,4,60,?9?9?9?9,-12.3,-15.2,79,99930,9999,9999,9999,0,0,0,999999,999999,999999,9999,317,3.01,3,3,9999,99999,9,999999999,999,0.999,0.0,99,0.2,0.0,0
2026,2,13,5,60,?9?9?9?9,-13.2,-15.9,80,99890,9999,9999,9999,0,0,0,999999,999999,999999,9999,313,2.87,1,1,9999,99999,9,999999999,999,0.999,0.0,99,0.2,0.0,0
2026,2,13,6,60,?9?9?9?9,-13.9,-16.6,80,99890,9999,9999,9999,0,0,0,999999,999999,999999,9999,313,2.94,0,0,9999,99999,9,999999999,999,0.999,0.0,99,0.2,0.0,0
2026,2,13,7,60,?9?9?9?9,-14.2,-17.1,79,99890,9999,9999,9999,0,0,0,999999,999999,999999,9999,314,3.11,0,0,9999,99999,9,999999999,999,0.999,0.0,99,0.2,0.0,0
2026,2,13,8,60,?9?9?9?9,-14.5,-17.5,78,99930,9999,9999,9999,0,0,0,999999,999999,999999,9999,312,2.94,0,0,9999,99999,9,999999999,999,0.999,0.0,99,0.2,0.0,0
2026,2,13,9,60,?9?9?9?9,-14.4,-17.6,77,99970,9999,9999,9999,52,337,20,999999,999999,999999,9999,277,1.56,0,0,9999,99999,9,999999999,999,0.999,0.0,99,0.2,0.0,0
2026,2,13,10,60,?9?9?9?9,-11.8,-16.8,66,100020,9999,9999,9999,204,633,60,999999,999999,999999,9999,225,0.42,7,7,9999,99999,9,999999999,999,0.999,0.0,99,0.2,0.0,0
2026,2,13,11,60,?9?9?9?9,-9.1,-15.6,59,100000,9999,9999,9999,337,636,112,999999,999999,999999,9999,180,1.25,9,9,9999,99999,9,999999999,999,0.999,0.0,99,0.2,0.0,0
2026,2,13,12,60,?9?9?9?9,-7.7,-14.4,59,99920,9999,9999,9999,426,585,166,999999,999999,999999,9999,174,2.21,7,7,9999,99999,9,999999999,999,0.999,0.0,99,0.2,0.0,0
2026,2,13,13,60,?9?9?9?9,-7.6,-13.7,62,99850,9999,9999,9999,504,699,159,999999,999999,999999,9999,175,2.61,6,6,9999,99999,9,999999999,999,0.999,0.0,99,0.2,0.0,0
2026,2,13,14,60,?9?9?9?9,-7.4,-13.1,64,99780,9999,9999,9999,517,747,145,999999,999999,999999,9999,175,3.16,10,10,9999,99999,9,999999999,999,0.999,0.0,99,0.2,0.0,0
2026,2,13,15,60,?9?9?9?9,-7.8,-12.9,67,99750,9999,9999,9999,437,571,176,999999,999999,999999,9999,177,2.9,10,10,9999,99999,9,999999999,999,0.999,0.0,99,0.2,0.0,0
2026,2,13,16,60,?9?9?9?9,-8.0,-12.6,70,99690,9999,9999,9999,364,670,114,999999,999999,999999,9999,177,2.85,9,9,9999,99999,9,999999999,999,0.999,0.0,99,0.2,0.0,0
2026,2,13,17,60,?9?9?9?9,-8.3,-11.9,75,99640,9999,9999,9999,212,450,98,999999,999999,999999,9999,177,2.05,9,9,9999,99999,9,999999999,999,0.999,0.0,99,0.2,0.0,0
2026,2,13,18,60,?9?9?9?9,-9.1,-11.6,82,99640,9999,9999,9999,68,228,43,999999,999999,999999,9999,207,2.57,9,9,9999,99999,9,999999999,999,0.999,0.0,99,0.2,0.0,0
2026,2,13,19,60,?9?9?9?9,-10.3,-12.2,86,99630,9999,9999,9999,1,0,1,999999,999999,999999,9999,216,2.58,10,10,9999,99999,9,999999999,999,0.999,0.0,99,0.2,0.0,0
2026,2,13,20,60,?9?9?9?9,-11.0,-13.5,82,99590,9999,9999,9999,0,0,0,999999,999999,999999,9999,220,2.8,5,5,9999,99999,9,999999999,999,0.999,0.0,99,0.2,0.0,0
2026,2,13,21,60,?9?9?9?9,-11.6,-14.1,81,99570,9999,9999,9999,0,0,0,999999,999999,999999,9999,226,2.79,1,1,9999,99999,9,999999999,999,0.999,0.0,99,0.2,0.0,0
2026,2,13,22,60,?9?9?9?9,-11.6,-14.6,78,99560,9999,9999,9999,0,0,0,999999,999999,999999,9999,230,2.66,0,0,9999,99999,9,999999999,999,0.999,0.0,99,0.2,0.0,0
2026,2,13,23,60,?9?9?9?9,-12.1,-15.2,77,99550,9999,9999,9999,0,0,0,999999,999999,999999,9999,219,2.56,0,0,9999,99999,9,999999999,999,0.999,0.0,99,0.2,0.0,0
2026,2,13,24,60,?9?9?9?9,-12.9,-16.0,78,99540,9999,9999,9999,0,0,0,999999,999999,999999,9999,214,2.41,1,1,9999,99999,9,999999999,999,0.999,0.0,99,0.2,0.0,0
2026,2,14,1,60,?9?9?9?9,-13.8,-16.6,79,99520,9999,9999,9999,0,0,0,999999,999999,999999,9999,217,2.32,0,0,9999,99999,9,999999999,999,0.999,0.0,99,0.2,0.0,0
2026,2,14,2,60,?9?9?9?9,-15.6,-18.4,79,99490,9999,9999,9999,0,0,0,999999,999999,999999,9999,216,2.04,2,2,9999,99999,9,999999999,999,0.999,0.0,99,0.2,0.0,0
2026,2,14,3,60,?9?9?9?9,-16.5,-19.0,81,99480,9999,9999,9999,0,0,0,999999,999999,999999,9999,210,2.08,10,10,9999,99999,9,999999999,999,0.999,0.0,99,0.2,0.0,0
2026,2,14,4,60,?9?9?9?9,-14.9,-17.6,79,99440,9999,9999,9999,0,0,0,999999,999999,999999,9999,207,2.19,10,10,9999,99999,9,999999999,999,0.999,0.0,99,0.2,0.0,0
2026,2,14,5,60,?9?9?9?9,-13.6,-16.0,81,99410,9999,9999,9999,0,0,0,999999,999999,999999,9999,211,2.62,10,10,9999,99999,9,999999999,999,0.999,0.0,99,0.2,0.0,0
2026,2,14,6,60,?9?9?9?9,-12.2,-14.9,81,99390,9999,9999,9999,0,0,0,999999,999999,999999,9999,215,2.37,10,10,9999,99999,9,999999999,999,0.999,0.001,99,0.2,0.1,1
2026,2,14,7,60,?9?9?9?9,-11.6,-13.8,83,99380,9999,9999,9999,0,0,0,999999,999999,999999,9999,208,2.37,10,10,9999,99999,9,999999999,999,0.999,0.003,99,0.2,0.4,1
2026,2,14,8,60,?9?9?9?9,-10.4,-12.2,87,99410,9999,9999,9999,0,0,0,999999,999999,999999,9999,209,2.51,10,10,9999,99999,9,999999999,999,0.999,0.001,99,0.2,0.2,1
2026,2,14,9,60,?9?9?9?9,-9.5,-11.6,85,99440,9999,9999,9999,17,0,17,999999,999999,999999,9999,203,1.9,10,10,9999,99999,9,999999999,999,0.999,0.001,99,0.2,0.1,1
2026,2,14,10,60,?9?9?9?9,-6.4,-10.1,75,99460,9999,9999,9999,105,43,95,999999,999999,999999,9999,256,1.24,10,10,9999,99999,9,999999999,999,0.999,0.0,99,0.2,0.0,0
2026,2,14,11,60,?9?9?9?9,-4.0,-9.5,66,99450,9999,9999,9999,269,206,195,999999,999999,999999,9999,293,2.44,6,6,9999,99999,9,999999999,999,0.999,0.0,99,0.2,0.0,0
2026,2,14,12,60,?9?9?9?9,-3.5,-11.3,55,99450,9999,9999,9999,417,521,183,999999,999999,999999,9999,304,3.02,0,0,9999,99999,9,999999999,999,0.999,0.0,99,0.2,0.0,0
2026,2,14,13,60,?9?9?9?9,-3.0,-12.1,49,99430,9999,9999,9999,539,874,103,999999,999999,999999,9999,305,2.91,0,0,9999,99999,9,999999999,999,0.999,0.0,99,0.2,0.0,0
2026,2,14,14,60,?9?9?9?9,-3.5,-13.9,44,99430,9999,9999,9999,555,933,86,999999,999999,999999,9999,309,3.3,2,2,9999,99999,9,999999999,999,0.999,0.0,99,0.2,0.0,0
2026,2,14,15,60,?9?9?9?9,-3.1,-14.0,43,99460,9999,9999,9999,491,849,99,999999,999999,999999,9999,299,3.78,9,9,9999,99999,9,999999999,999,0.999,0.0,99,0.2,0.0,0
2026,2,14,16,60,?9?9?9?9,-3.2,-14.1,43,99500,9999,9999,9999,330,407,176,999999,999999,999999,9999,294,4.1,10,10,9999,99999,9,999999999,999,0.999,0.0,99,0.2,0.0,0
2026,2,14,17,60,?9?9?9?9,-3.9,-13.3,48,99530,9999,9999,9999,198,310,118,999999,999999,999999,9999,305,2.76,10,10,9999,99999,9,999999999,999,0.999,0.0,99,0.2,0.0,0
2026,2,14,18,60,?9?9?9?9,-6.4,-13.0,59,99560,9999,9999,9999,72,241,45,999999,999999,999999,9999,321,1.99,1,1,9999,99999,9,999999999,999,0.999,0.0,99,0.2,0.0,0
2026,2,14,19,60,?9?9?9?9,-9.5,-13.6,72,99640,9999,9999,9999,1,0,1,999999,999999,999999,9999,337,2.71,2,2,9999,99999,9,999999999,999,0.999,0.0,99,0.2,0.0,0
2026,2,14,20,60,?9?9?9?9,-9.6,-13.6,73,99750,9999,9999,9999,0,0,0,999999,999999,999999,9999,346,3.04,10,10,9999,99999,9,999999999,999,0.999,0.0,99,0.2,0.0,0
2026,2,14,21,60,?9?9?9?9,-10.3,-13.7,76,99770,9999,9999,9999,0,0,0,999999,999999,999999,9999,355,2.31,10,10,9999,99999,9,999999999,999,0.999,0.0,99,0.2,0.0,0
2026,2,14,22,60,?9?9?9?9,-11.2,-14.3,78,99810,9999,9999,9999,0,0,0,999999,999999,999999,9999,356,3.31,10,10,9999,99999,9,999999999,999,0.999,0.0,99,0.2,0.0,0
2026,2,14,23,60,?9?9?9?9,-11.6,-15.1,75,99830,9999,9999,9999,0,0,0,999999,999999,999999,9999,354,3.87,0,0,9999,99999,9,999999999,999,0.999,0.0,99,0.2,0.0,0
2026,2,14,24,60,?9?9?9?9,-12.8,-16.1,76,99880,9999,9999,9999,0,0,0,999999,999999,999999,9999,342,3.89,0,0,9999,99999,9,999999999,999,0.999,0.0,99,0.2,0.0,0
2026,2,15,1,60,?9?9?9?9,-13.9,-17.2,75,99970,9999,9999,9999,0,0,0,999999,999999,999999,9999,342,4.11,0,0,9999,99999,9,999999999,999,0.999,0.0,99,0.2,0.0,0
2026,2,15,2,60,?9?9?9?9,-15.1,-18.0,78,100020,9999,9999,9999,0,0,0,999999,999999,999999,9999,339,3.53,0,0,9999,99999,9,999999999,999,0.999,0.0,99,0.2,0.0,0
2026,2,15,3,60,?9?9?9?9,-15.8,-18.3,81,100060,9999,9999,9999,0,0,0,999999,999999,999999,9999,338,3.18,0,0,9999,99999,9,999999999,999,0.999,0.0,99,0.2,0.0,0
2026,2,15,4,60,?9?9?9?9,-16.3,-19.4,77,100070,9999,9999,9999,0,0,0,999999,999999,999999,9999,342,4.1,0,0,9999,99999,9,999999999,999,0.999,0.0,99,0.2,0.0,0
2026,2,15,5,60,?9?9?9?9,-16.8,-20.9,71,100150,9999,9999,9999,0,0,0,999999,999999,999999,9999,340,4.57,0,0,9999,99999,9,999999999,999,0.999,0.0,99,0.2,0.0,0
2026,2,15,6,60,?9?9?9?9,-17.1,-21.5,69,100170,9999,9999,9999,0,0,0,999999,999999,999999,9999,344,4.68,0,0,9999,99999,9,999999999,999,0.999,0.0,99,0.2,0.0,0
2026,2,15,7,60,?9?9?9?9,-17.5,-21.8,69,100210,9999,9999,9999,0,0,0,999999,999999,999999,9999,344,4.73,0,0,9999,99999,9,999999999,999,0.999,0.0,99,0.2,0.0,0
2026,2,15,8,60,?9?9?9?9,-17.6,-21.7,71,100280,9999,9999,9999,0,0,0,999999,999999,999999,9999,341,4.65,0,0,9999,99999,9,999999999,999,0.999,0.0,99,0.2,0.0,0
2026,2,15,9,60,?9?9?9?9,-16.8,-21.6,66,100310,9999,9999,9999,62,390,23,999999,999999,999999,9999,341,4.49,0,0,9999,99999,9,999999999,999,0.999,0.0,99,0.2,0.0,0
2026,2,15,10,60,?9?9?9?9,-15.2,-21.2,60,100350,9999,9999,9999,221,687,58,999999,999999,999999,9999,346,3.5,0,0,9999,99999,9,999999999,999,0.999,0.0,99,0.2,0.0,0
2026,2,15,11,60,?9?9?9?9,-12.6,-20.1,54,100360,9999,9999,9999,375,819,77,999999,999999,999999,9999,340,2.66,0,0,9999,99999,9,999999999,999,0.999,0.0,99,0.2,0.0,0
2026,2,15,12,60,?9?9?9?9,-9.4,-18.4,48,100360,9999,9999,9999,489,884,87,999999,999999,999999,9999,310,1.56,0,0,9999,99999,9,999999999,999,0.999,0.0,99,0.2,0.0,0
2026,2,15,13,60,?9?9?9?9,-6.8,-16.2,47,100290,9999,9999,9999,551,909,93,999999,999999,999999,9999,311,1.13,0,0,9999,99999,9,999999999,999,0.999,0.0,99,0.2,0.0,0
2026,2,15,14,60,?9?9?9?9,-4.5,-14.6,45,100230,9999,9999,9999,556,911,93,999999,999999,999999,9999,351,0.61,2,2,9999,99999,9,999999999,999,0.999,0.0,99,0.2,0.0,0
2026,2,15,15,60,?9?9?9?9,-3.8,-13.2,48,100190,9999,9999,9999,502,882,90,999999,999999,999999,9999,117,0.45,0,0,9999,99999,9,999999999,999,0.999,0.0,99,0.2,0.0,0
2026,2,15,16,60,?9?9?9?9,-4.3,-13.3,50,100160,9999,9999,9999,396,827,79,999999,999999,999999,9999,140,0.85,2,2,9999,99999,9,999999999,999,0.999,0.0,99,0.2,0.0,0
2026,2,15,17,60,?9?9?9?9,-6.1,-13.6,55,100210,9999,9999,9999,249,712,62,999999,999999,999999,9999,172,1.51,2,2,9999,99999,9,999999999,999,0.999,0.0,99,0.2,0.0,0
2026,2,15,18,60,?9?9?9?9,-10.1,-14.1,72,100240,9999,9999,9999,87,471,33,999999,999999,999999,9999,195,1.55,8,8,9999,99999,9,999999999,999,0.999,0.0,99,0.2,0.0,0
2026,2,15,19,60,?9?9?9?9,-12.9,-16.1,77,100270,9999,9999,9999,2,0,2,999999,999999,999999,9999,216,0.68,10,10,9999,99999,9,999999999,999,0.999,0.0,99,0.2,0.0,0
2026,2,15,20,60,?9?9?9?9,-13.6,-16.9,76,100230,9999,9999,9999,0,0,0,999999,999999,999999,9999,333,0.22,10,10,9999,99999,9,999999999,999,0.999,0.0,99,0.2,0.0,0
2026,2,15,21,60,?9?9?9?9,-13.1,-16.3,77,100240,9999,9999,9999,0,0,0,999999,999999,999999,9999,25,1.32,10,10,9999,99999,9,999999999,999,0.999,0.0,99,0.2,0.0,0
2026,2,15,22,60,?9?9?9?9,-13.9,-17.1,76,100240,9999,9999,9999,0,0,0,999999,999999,999999,9999,43,1.77,10,10,9999,99999,9,999999999,999,0.999,0.0,99,0.2,0.0,0
2026,2,15,23,60,?9?9?9?9,-13.4,-16.8,76,100230,9999,9999,9999,0,0,0,999999,999999,999999,9999,38,2.1,10,10,9999,99999,9,999999999,999,0.999,0.0,99,0.2,0.0,0
2026,2,15,24,60,?9?9?9?9,-13.1,-16.5,76,100200,9999,9999,9999,0,0,0,999999,999999,999999,9999,40,2.41,10,10,9999,99999,9,999999999,999,0.999,0.0,99,0.2,0.0,0
2026,2,16,1,60,?9?9?9?9,-13.4,-16.9,75,100170,9999,9999,9999,0,0,0,999999,999999,999999,9999,40,2.48,10,10,9999,99999,9,999999999,999,0.999,0.0,99,0.2,0.0,0
2026,2,16,2,60,?9?9?9?9,-12.5,-16.2,74,100150,9999,9999,9999,0,0,0,999999,999999,999999,9999,51,2.81,10,10,9999,99999,9,999999999,999,0.999,0.0,99,0.2,0.0,0
2026,2,16,3,60,?9?9?9?9,-12.1,-15.3,77,100140,9999,9999,9999,0,0,0,999999,999999,999999,9999,53,2.96,8,8,9999,99999,9,999999999,999,0.999,0.0,99,0.2,0.0,0
2026,2,16,4,60,?9?9?9?9,-12.9,-15.5,81,100120,9999,9999,9999,0,0,0,999999,999999,999999,9999,54,3.04,4,4,9999,99999,9,999999999,999,0.999,0.0,99,0.2,0.0,0
2026,2,16,5,60,?9?9?9?9,-13.1,-15.4,83,100150,9999,9999,9999,0,0,0,999999,999999,999999,9999,47,2.87,7,7,9999,99999,9,999999999,999,0.999,0.0,99,0.2,0.0,0
2026,2,16,6,60,?9?9?9?9,-13.1,-15.2,84,100150,9999,9999,9999,0,0,0,999999,999999,999999,9999,55,2.94,4,4,9999,99999,9,999999999,999,0.999,0.0,99,0.2,0.0,0
2026,2,16,7,60,?9?9?9?9,-13.4,-15.5,85,100160,9999,9999,9999,0,0,0,999999,999999,999999,9999,53,2.43,2,2,9999,99999,9,999999999,999,0.999,0.0,99,0.2,0.0,0
2026,2,16,8,60,?9?9?9?9,-13.6,-15.8,84,100180,9999,9999,9999,0,0,0,999999,999999,999999,9999,45,2.26,0,0,9999,99999,9,999999999,999,0.999,0.0,99,0.2,0.0,0
2026,2,16,9,60,?9?9?9?9,-12.2,-14.8,82,100210,9999,9999,9999,63,380,24,999999,999999,999999,9999,50,2.59,0,0,9999,99999,9,999999999,999,0.999,0.0,99,0.2,0.0,0
2026,2,16,10,60,?9?9?9?9,-9.4,-13.8,70,100230,9999,9999,9999,222,673,59,999999,999999,999999,9999,48,1.35,1,1,9999,99999,9,999999999,999,0.999,0.0,99,0.2,0.0,0
2026,2,16,11,60,?9?9?9?9,-6.5,-12.7,61,100220,9999,9999,9999,373,803,77,999999,999999,999999,9999,86,1.4,0,0,9999,99999,9,999999999,999,0.999,0.0,99,0.2,0.0,0
2026,2,16,12,60,?9?9?9?9,-4.3,-12.3,54,100200,9999,9999,9999,485,866,87,999999,999999,999999,9999,112,1.35,10,10,9999,99999,9,999999999,999,0.999,0.0,99,0.2,0.0,0
2026,2,16,13,60,?9?9?9?9,-2.8,-12.0,49,100140,9999,9999,9999,540,851,107,999999,999999,999999,9999,125,1.58,10,10,9999,99999,9,999999999,999,0.999,0.0,99,0.2,0.0,0
2026,2,16,14,60,?9?9?9?9,-1.6,-12.2,44,100020,9999,9999,9999,490,548,209,999999,999999,999999,9999,149,2.22,10,10,9999,99999,9,999999999,999,0.999,0.0,99,0.2,0.0,0
2026,2,16,15,60,?9?9?9?9,-1.1,-12.1,43,100030,9999,9999,9999,391,369,217,999999,999999,999999,9999,178,2.35,10,10,9999,99999,9,999999999,999,0.999,0.0,99,0.2,0.0,0
2026,2,16,16,60,?9?9?9?9,-1.2,-11.5,46,100020,9999,9999,9999,302,273,196,999999,999999,999999,9999,176,2.01,8,8,9999,99999,9,999999999,999,0.999,0.0,99,0.2,0.0,0
2026,2,16,17,60,?9?9?9?9,-2.0,-10.7,51,99990,9999,9999,9999,229,512,92,999999,999999,999999,9999,150,1.21,10,10,9999,99999,9,999999999,999,0.999,0.0,99,0.2,0.0,0
2026,2,16,18,60,?9?9?9?9,-4.1,-10.1,63,99980,9999,9999,9999,59,42,54,999999,999999,999999,9999,109,1.22,10,10,9999,99999,9,999999999,999,0.999,0.0,99,0.2,0.0,0
2026,2,16,19,60,?9?9?9?9,-4.8,-8.8,74,99980,9999,9999,9999,1,0,1,999999,999999,999999,9999,102,1.89,10,10,9999,99999,9,999999999,999,0.999,0.001,99,0.2,0.1,1
2026,2,16,20,60,?9?9?9?9,-3.3,-6.8,77,99960,9999,9999,9999,0,0,0,999999,999999,999999,9999,94,1.45,10,10,9999,99999,9,999999999,999,0.999,0.0,99,0.2,0.0,0
2026,2,16,21,60,?9?9?9?9,-3.2,-6.6,78,99940,9999,9999,9999,0,0,0,999999,999999,999999,9999,100,1.17,10,10,9999,99999,9,999999999,999,0.999,0.0,99,0.2,0.0,0
2026,2,16,22,60,?9?9?9?9,-3.0,-6.2,79,99940,9999,9999,9999,0,0,0,999999,999999,999999,9999,98,1.46,10,10,9999,99999,9,999999999,999,0.999,0.001,99,0.2,0.1,1
2026,2,16,23,60,?9?9?9?9,-3.2,-6.1,81,99890,9999,9999,9999,0,0,0,999999,999999,999999,9999,85,1.2,10,10,9999,99999,9,999999999,999,0.999,0.0,99,0.2,0.0,0
2026,2,16,24,60,?9?9?9?9,-3.7,-6.1,83,99850,9999,9999,9999,0,0,0,999999,999999,999999,9999,90,1.1,10,10,9999,99999,9,999999999,999,0.999,0.0,99,0.2,0.0,0
2026,2,17,1,60,?9?9?9?9,-3.2,-5.7,83,99820,9999,9999,9999,0,0,0,999999,999999,999999,9999,120,1.5,10,10,9999,99999,9,999999999,999,0.999,0.0,99,0.2,0.0,0
2026,2,17,2,60,?9?9?9?9,-2.8,-5.9,79,99810,9999,9999,9999,0,0,0,999999,999999,999999,9999,145,1.58,10,10,9999,99999,9,999999999,999,0.999,0.0,99,0.2,0.0,0
2026,2,17,3,60,?9?9?9?9,-2.8,-5.8,80,99790,9999,9999,9999,0,0,0,999999,999999,999999,9999,163,1.83,10,10,9999,99999,9,999999999,999,0.999,0.0,99,0.2,0.0,0
2026,2,17,4,60,?9?9?9?9,-3.2,-5.3,85,99790,9999,9999,9999,0,0,0,999999,999999,999999,9999,174,1.36,10,10,9999,99999,9,999999999,999,0.999,0.001,99,0.2,0.1,1
2026,2,17,5,60,?9?9?9?9,-3.3,-4.7,90,99770,9999,9999,9999,0,0,0,999999,999999,999999,9999,185,1.25,10,10,9999,99999,9,999999999,999,0.999,0.001,99,0.2,0.1,1
2026,2,17,6,60,?9?9?9?9,-3.3,-4.3,93,99770,9999,9999,9999,0,0,0,999999,999999,999999,9999,219,0.71,10,10,9999,99999,9,999999999,999,0.999,0.001,99,0.2,0.1,1
2026,2,17,7,60,?9?9?9?9,-3.2,-4.2,93,99770,9999,9999,9999,0,0,0,999999,999999,999999,9999,167,0.46,10,10,9999,99999,9,999999999,999,0.999,0.001,99,0.2,0.1,1
2026,2,17,8,60,?9?9?9?9,-3.2,-4.2,93,99810,9999,9999,9999,0,0,0,999999,999999,999999,9999,135,0.21,10,10,9999,99999,9,999999999,999,0.999,0.001,99,0.2,0.1,1
2026,2,17,9,60,?9?9?9?9,-2.5,-3.7,92,99820,9999,9999,9999,23,0,23,999999,999999,999999,9999,148,0.76,10,10,9999,99999,9,999999999,999,0.999,0.0,99,0.2,0.0,0
2026,2,17,10,60,?9?9?9?9,-1.8,-3.2,90,99830,9999,9999,9999,70,4,69,999999,999999,999999,9999,187,1.26,10,10,9999,99999,9,999999999,999,0.999,0.0,99,0.2,0.0,0
2026,2,17,11,60,?9?9?9?9,-0.9,-2.6,89,99790,9999,9999,9999,103,0,103,999999,999999,999999,9999,185,1.2,10,10,9999,99999,9,999999999,999,0.999,0.0,99,0.2,0.0,0
2026,2,17,12,60,?9?9?9?9,-0.2,-2.1,87,99750,9999,9999,9999,132,9,128,999999,999999,999999,9999,185,1.61,10,10,9999,99999,9,999999999,999,0.999,0.0,99,0.2,0.0,0
2026,2,17,13,60,?9?9?9?9,0.3,-1.8,86,99690,9999,9999,9999,172,2,171,999999,999999,999999,9999,188,1.72,10,10,9999,99999,9,999999999,999,0.999,0.0,99,0.2,0.0,0
2026,2,17,14,60,?9?9?9?9,-0.2,-1.9,89,99620,9999,9999,9999,211,12,205,999999,999999,999999,9999,194,1.86,10,10,9999,99999,9,999999999,999,0.999,0.0,99,0.2,0.0,0
2026,2,17,15,60,?9?9?9?9,-0.1,-1.6,89,99590,9999,9999,9999,140,0,140,999999,999999,999999,9999,194,1.86,10,10,9999,99999,9,999999999,999,0.999,0.0,99,0.2,0.0,0
2026,2,17,16,60,?9?9?9?9,0.0,-1.5,90,99520,9999,9999,9999,119,5,117,999999,999999,999999,9999,184,2.06,10,10,9999,99999,9,999999999,999,0.999,0.0,99,0.2,0.0,0
2026,2,17,17,60,?9?9?9?9,-0.1,-1.2,92,99490,9999,9999,9999,72,0,72,999999,999999,999999,9999,193,2.0,10,10,9999,99999,9,999999999,999,0.999,0.0,99,0.2,0.0,0
2026,2,17,18,60,?9?9?9?9,-0.3,-1.0,95,99480,9999,9999,9999,19,0,19,999999,999999,999999,9999,197,2.09,10,10,9999,99999,9,999999999,999,0.999,0.0,99,0.2,0.0,0
2026,2,17,19,60,?9?9?9?9,-0.3,-0.9,96,99480,9999,9999,9999,1,0,1,999999,999999,999999,9999,217,2.39,10,10,9999,99999,9,999999999,999,0.999,0.0,99,0.2,0.0,0
2026,2,17,20,60,?9?9?9?9,-0.6,-0.9,98,99430,9999,9999,9999,0,0,0,999999,999999,999999,9999,213,2.79,8,8,9999,99999,9,999999999,999,0.999,0.0,99,0.2,0.0,0
2026,2,17,21,60,?9?9?9?9,-1.2,-1.6,97,99440,9999,9999,9999,0,0,0,999999,999999,999999,9999,232,2.46,10,10,9999,99999,9,999999999,999,0.999,0.0,99,0.2,0.0,0
2026,2,17,22,60,?9?9?9?9,0.0,-1.4,90,99450,9999,9999,9999,0,0,0,999999,999999,999999,9999,244,3.4,3,3,9999,99999,9,999999999,999,0.999,0.003,99,0.2,0.4,1
2026,2,17,23,60,?9?9?9?9,0.1,-3.3,78,99470,9999,9999,9999,0,0,0,999999,999999,999999,9999,288,4.32,1,1,9999,99999,9,999999999,999,0.999,0.001,99,0.2,0.1,1
2026,2,17,24,60,?9?9?9?9,-1.3,-5.3,74,99490,9999,9999,9999,0,0,0,999999,999999,999999,9999,294,4.34,0,0,9999,99999,9,999999999,999,0.999,0.0,99,0.2,0.0,0
2026,2,18,1,60,?9?9?9?9,-2.5,-6.9,72,99480,9999,9999,9999,0,0,0,999999,999999,999999,9999,296,4.23,0,0,9999,99999,9,999999999,999,0.999,0.0,99,0.2,0.0,0
2026,2,18,2,60,?9?9?9?9,-3.7,-7.7,74,99460,9999,9999,9999,0,0,0,999999,999999,999999,9999,286,3.7,0,0,9999,99999,9,999999999,999,0.999,0.0,99,0.2,0.0,0
2026,2,18,3,60,?9?9?9?9,-3.8,-8.2,71,99480,9999,9999,9999,0,0,0,999999,999999,999999,9999,302,3.88,0,0,9999,99999,9,999999999,999,0.999,0.0,99,0.2,0.0,0
2026,2,18,4,60,?9?9?9?9,-4.9,-8.5,76,99510,9999,9999,9999,0,0,0,999999,999999,999999,9999,311,3.26,0,0,9999,99999,9,999999999,999,0.999,0.0,99,0.2,0.0,0
2026,2,18,5,60,?9?9?9?9,-6.8,-9.9,79,99550,9999,9999,9999,0,0,0,999999,999999,999999,9999,306,3.01,0,0,9999,99999,9,999999999,999,0.999,0.0,99,0.2,0.0,0
2026,2,18,6,60,?9?9?9?9,-8.6,-12.7,73,99590,9999,9999,9999,0,0,0,999999,999999,999999,9999,324,3.72,0,0,9999,99999,9,999999999,999,0.999,0.0,99,0.2,0.0,0
2026,2,18,7,60,?9?9?9?9,-10.2,-13.4,77,99630,9999,9999,9999,0,0,0,999999,999999,999999,9999,308,2.71,0,0,9999,99999,9,999999999,999,0.999,0.0,99,0.2,0.0,0
2026,2,18,8,60,?9?9?9?9,-9.9,-13.5,75,99670,9999,9999,9999,0,0,0,999999,999999,999999,9999,321,4.19,0,0,9999,99999,9,999999999,999,0.999,0.0,99,0.2,0.0,0
2026,2,18,9,60,?9?9?9?9,-9.2,-13.4,71,99700,9999,9999,9999,74,436,27,999999,999999,999999,9999,332,4.43,0,0,9999,99999,9,999999999,999,0.999,0.0,99,0.2,0.0,0
2026,2,18,10,60,?9?9?9?9,-8.3,-13.6,66,99670,9999,9999,9999,236,674,66,999999,999999,999999,9999,338,4.71,0,0,9999,99999,9,999999999,999,0.999,0.0,99,0.2,0.0,0
2026,2,18,11,60,?9?9?9?9,-7.4,-13.4,62,99660,9999,9999,9999,392,812,84,999999,999999,999999,9999,341,4.96,1,1,9999,99999,9,999999999,999,0.999,0.0,99,0.2,0.0,0
2026,2,18,12,60,?9?9?9?9,-6.5,-13.2,59,99630,9999,9999,9999,497,823,110,999999,999999,999999,9999,338,4.62,2,2,9999,99999,9,999999999,999,0.999,0.0,99,0.2,0.0,0
2026,2,18,13,60,?9?9?9?9,-5.2,-12.9,55,99560,9999,9999,9999,562,874,108,999999,999999,999999,9999,339,4.54,0,0,9999,99999,9,999999999,999,0.999,0.0,99,0.2,0.0,0
2026,2,18,14,60,?9?9?9?9,-3.3,-12.0,51,99460,9999,9999,9999,562,842,121,999999,999999,999999,9999,344,4.05,1,1,9999,99999,9,999999999,999,0.999,0.0,99,0.2,0.0,0
2026,2,18,15,60,?9?9?9?9,-3.0,-11.6,51,99470,9999,9999,9999,520,888,92,999999,999999,999999,9999,359,3.85,2,2,9999,99999,9,999999999,999,0.999,0.0,99,0.2,0.0,0
2026,2,18,16,60,?9?9?9?9,-2.5,-11.2,51,99490,9999,9999,9999,411,824,83,999999,999999,999999,9999,357,2.95,1,1,9999,99999,9,999999999,999,0.999,0.0,99,0.2,0.0,0
2026,2,18,17,60,?9?9?9?9,-2.7,-10.3,56,99480,9999,9999,9999,262,708,66,999999,999999,999999,9999,6,2.51,2,2,9999,99999,9,999999999,999,0.999,0.0,99,0.2,0.0,0
2026,2,18,18,60,?9?9?9?9,-4.6,-10.1,65,99460,9999,9999,9999,100,504,36,999999,999999,999999,9999,358,2.65,0,0,9999,99999,9,999999999,999,0.999,0.0,99,0.2,0.0,0
2026,2,18,19,60,?9?9?9?9,-6.6,-10.4,74,99540,9999,9999,9999,3,25,2,999999,999999,999999,9999,342,3.26,1,1,9999,99999,9,999999999,999,0.999,0.0,99,0.2,0.0,0
2026,2,18,20,60,?9?9?9?9,-8.0,-11.7,75,99570,9999,9999,9999,0,0,0,999999,999999,999999,9999,340,3.15,0,0,9999,99999,9,999999999,999,0.999,0.0,99,0.2,0.0,0
2026,2,18,21,60,?9?9?9?9,-7.6,-11.3,75,99620,9999,9999,9999,0,0,0,999999,999999,999999,9999,344,3.91,0,0,9999,99999,9,999999999,999,0.999,0.0,99,0.2,0.0,0
2026,2,18,22,60,?9?9?9?9,-7.4,-11.8,71,99600,9999,9999,9999,0,0,0,999999,999999,999999,9999,351,4.65,0,0,9999,99999,9,999999999,999,0.999,0.0,99,0.2,0.0,0
2026,2,18,23,60,?9?9?9?9,-7.8,-12.4,70,99620,9999,9999,9999,0,0,0,999999,999999,999999,9999,353,4.43,0,0,9999,99999,9,999999999,999,0.999,0.0,99,0.2,0.0,0
2026,2,18,24,60,?9?9?9?9,-8.8,-12.7,73,99690,9999,9999,9999,0,0,0,999999,999999,999999,9999,351,4.35,1,1,9999,99999,9,999999999,999,0.999,0.0,99,0.2,0.0,0
2026,2,19,1,60,?9?9?9?9,-9.9,-13.2,77,99770,9999,9999,9999,0,0,0,999999,999999,999999,9999,342,4.57,4,4,9999,99999,9,999999999,999,0.999,0.0,99,0.2,0.0,0
2026,2,19,2,60,?9?9?9?9,-11.2,-14.9,74,99820,9999,9999,9999,0,0,0,999999,999999,999999,9999,340,5.09,2,2,9999,99999,9,999999999,999,0.999,0.0,99,0.2,0.0,0
2026,2,19,3,60,?9?9?9?9,-12.0,-15.6,75,99840,9999,9999,9999,0,0,0,999999,999999,999999,9999,342,5.25,0,0,9999,99999,9,999999999,999,0.999,0.0,99,0.2,0.0,0
2026,2,19,4,60,?9?9?9?9,-12.9,-16.2,76,99840,9999,9999,9999,0,0,0,999999,999999,999999,9999,346,5.15,0,0,9999,99999,9,999999999,999,0.999,0.0,99,0.2,0.0,0
2026,2,19,5,60,?9?9?9?9,-13.7,-16.9,77,99860,9999,9999,9999,0,0,0,999999,999999,999999,9999,346,5.09,2,2,9999,99999,9,999999999,999,0.999,0.0,99,0.2,0.0,0
2026,2,19,6,60,?9?9?9?9,-14.3,-17.6,76,99920,9999,9999,9999,0,0,0,999999,999999,999999,9999,344,5.36,0,0,9999,99999,9,999999999,999,0.999,0.0,99,0.2,0.0,0
2026,2,19,7,60,?9?9?9?9,-14.8,-18.1,76,100050,9999,9999,9999,0,0,0,999999,999999,999999,9999,331,5.19,0,0,9999,99999,9,999999999,999,0.999,0.0,99,0.2,0.0,0
2026,2,19,8,60,?9?9?9?9,-13.9,-17.4,75,100120,9999,9999,9999,1,0,1,999999,999999,999999,9999,336,4.94,0,0,9999,99999,9,999999999,999,0.999,0.0,99,0.2,0.0,0
2026,2,19,9,60,?9?9?9?9,-13.2,-17.7,69,100190,9999,9999,9999,78,453,28,999999,999999,999999,9999,339,4.7,4,4,9999,99999,9,999999999,999,0.999,0.0,99,0.2,0.0,0
2026,2,19,10,60,?9?9?9?9,-11.6,-17.1,64,100220,9999,9999,9999,243,707,61,999999,999999,999999,9999,338,3.07,0,0,9999,99999,9,999999999,999,0.999,0.0,99,0.2,0.0,0
2026,2,19,11,60,?9?9?9?9,-9.3,-16.1,58,100220,9999,9999,9999,397,830,78,999999,999999,999999,9999,352,3.79,0,0,9999,99999,9,999999999,999,0.999,0.0,99,0.2,0.0,0
2026,2,19,12,60,?9?9?9?9,-6.9,-15.1,52,100170,9999,9999,9999,512,893,87,999999,999999,999999,9999,357,2.8,0,0,9999,99999,9,999999999,999,0.999,0.0,99,0.2,0.0,0
2026,2,19,13,60,?9?9?9?9,-4.7,-14.4,46,100160,9999,9999,9999,576,924,91,999999,999999,999999,9999,335,1.88,2,2,9999,99999,9,999999999,999,0.999,0.0,99,0.2,0.0,0
2026,2,19,14,60,?9?9?9?9,-2.5,-13.9,41,100060,9999,9999,9999,576,896,102,999999,999999,999999,9999,349,1.83,6,6,9999,99999,9,999999999,999,0.999,0.0,99,0.2,0.0,0
2026,2,19,15,60,?9?9?9?9,-1.2,-13.2,40,100010,9999,9999,9999,524,884,93,999999,999999,999999,9999,354,1.46,8,8,9999,99999,9,999999999,999,0.999,0.0,99,0.2,0.0,0
2026,2,19,16,60,?9?9?9?9,-0.8,-12.6,40,100000,9999,9999,9999,407,759,101,999999,999999,999999,9999,349,1.02,5,5,9999,99999,9,999999999,999,0.999,0.0,99,0.2,0.0,0
2026,2,19,17,60,?9?9?9?9,-1.5,-12.5,43,99970,9999,9999,9999,259,618,85,999999,999999,999999,9999,9,1.22,9,9,9999,99999,9,999999999,999,0.999,0.0,99,0.2,0.0,0
2026,2,19,18,60,?9?9?9?9,-4.4,-12.6,53,99970,9999,9999,9999,97,372,48,999999,999999,999999,9999,16,1.3,6,6,9999,99999,9,999999999,999,0.999,0.0,99,0.2,0.0,0
2026,2,19,19,60,?9?9?9?9,-7.9,-13.5,64,99970,9999,9999,9999,4,24,3,999999,999999,999999,9999,357,1.75,2,2,9999,99999,9,999999999,999,0.999,0.0,99,0.2,0.0,0
2026,2,19,20,60,?9?9?9?9,-9.2,-14.4,66,99940,9999,9999,9999,0,0,0,999999,999999,999999,9999,337,1.41,1,1,9999,99999,9,999999999,999,0.999,0.0,99,0.2,0.0,0
2026,2,19,21,60,?9?9?9?9,-10.4,-15.1,68,99920,9999,9999,9999,0,0,0,999999,999999,999999,9999,322,1.64,2,2,9999,99999,9,999999999,999,0.999,0.0,99,0.2,0.0,0
2026,2,19,22,60,?9?9?9?9,-10.6,-15.2,68,99890,9999,9999,9999,0,0,0,999999,999999,999999,9999,335,2.33,2,2,9999,99999,9,999999999,999,0.999,0.0,99,0.2,0.0,0
2026,2,19,23,60,?9?9?9?9,-10.4,-15.4,67,99870,9999,9999,9999,0,0,0,999999,999999,999999,9999,342,2.53,0,0,9999,99999,9,999999999,999,0.999,0.0,99,0.2,0.0,0
2026,2,19,24,60,?9?9?9?9,-11.1,-15.6,69,99910,9999,9999,9999,0,0,0,999999,999999,999999,9999,337,2.67,0,0,9999,99999,9,999999999,999,0.999,0.0,99,0.2,0.0,0
2026,2,20,1,60,?9?9?9?9,-11.5,-15.6,71,99880,9999,9999,9999,0,0,0,999999,999999,999999,9999,343,3.29,0,0,9999,99999,9,999999999,999,0.999,0.0,99,0.2,0.0,0
2026,2,20,2,60,?9?9?9?9,-11.6,-15.9,70,99840,9999,9999,9999,0,0,0,999999,999999,999999,9999,348,3.32,0,0,9999,99999,9,999999999,999,0.999,0.0,99,0.2,0.0,0
2026,2,20,3,60,?9?9?9?9,-12.0,-16.1,72,99820,9999,9999,9999,0,0,0,999999,999999,999999,9999,347,3.54,0,0,9999,99999,9,999999999,999,0.999,0.0,99,0.2,0.0,0
2026,2,20,4,60,?9?9?9?9,-12.1,-16.4,70,99780,9999,9999,9999,0,0,0,999999,999999,999999,9999,350,3.61,0,0,9999,99999,9,999999999,999,0.999,0.0,99,0.2,0.0,0
2026,2,20,5,60,?9?9?9?9,-12.4,-16.6,71,99750,9999,9999,9999,0,0,0,999999,999999,999999,9999,355,3.76,0,0,9999,99999,9,999999999,999,0.999,0.0,99,0.2,0.0,0
2026,2,20,6,60,?9?9?9?9,-12.7,-16.8,71,99750,9999,9999,9999,0,0,0,999999,999999,999999,9999,357,3.71,0,0,9999,99999,9,999999999,999,0.999,0.0,99,0.2,0.0,0
2026,2,20,7,60,?9?9?9?9,-13.1,-17.0,72,99790,9999,9999,9999,0,0,0,999999,999999,999999,9999,1,4.0,0,0,9999,99999,9,999999999,999,0.999,0.0,99,0.2,0.0,0
2026,2,20,8,60,?9?9?9?9,-13.0,-16.9,73,99780,9999,9999,9999,1,0,1,999999,999999,999999,9999,5,4.47,0,0,9999,99999,9,999999999,999,0.999,0.0,99,0.2,0.0,0
2026,2,20,9,60,?9?9?9?9,-11.8,-16.6,67,99810,9999,9999,9999,83,468,30,999999,999999,999999,9999,13,3.7,1,1,9999,99999,9,999999999,999,0.999,0.0,99,0.2,0.0,0
2026,2,20,10,60,?9?9?9?9,-9.4,-15.6,61,99820,9999,9999,9999,245,696,62,999999,999999,999999,9999,16,2.86,4,4,9999,99999,9,999999999,999,0.999,0.0,99,0.2,0.0,0
2026,2,20,11,60,?9?9?9?9,-6.9,-13.8,58,99750,9999,9999,9999,392,787,85,999999,999999,999999,9999,36,3.44,10,10,9999,99999,9,999999999,999,0.999,0.0,99,0.2,0.0,0
2026,2,20,12,60,?9?9?9?9,-5.2,-12.4,57,99730,9999,9999,9999,503,823,107,999999,999999,999999,9999,55,3.12,10,10,9999,99999,9,999999999,999,0.999,0.0,99,0.2,0.0,0
2026,2,20,13,60,?9?9?9?9,-4.3,-11.2,58,99640,9999,9999,9999,556,790,137,999999,999999,999999,9999,65,3.87,10,10,9999,99999,9,999999999,999,0.999,0.0,99,0.2,0.0,0
2026,2,20,14,60,?9?9?9?9,-3.4,-10.8,57,99500,9999,9999,9999,536,651,188,999999,999999,999999,9999,62,4.85,10,10,9999,99999,9,999999999,999,0.999,0.0,99,0.2,0.0,0
2026,2,20,15,60,?9?9?9?9,-3.5,-11.1,56,99380,9999,9999,9999,458,475,224,999999,999999,999999,9999,66,4.59,10,10,9999,99999,9,999999999,999,0.999,0.0,99,0.2,0.0,0
2026,2,20,16,60,?9?9?9?9,-4.3,-10.9,60,99300,9999,9999,9999,351,390,192,999999,999999,999999,9999,64,4.63,10,10,9999,99999,9,999999999,999,0.999,0.0,99,0.2,0.0,0
2026,2,20,17,60,?9?9?9?9,-5.6,-11.1,65,99210,9999,9999,9999,200,175,150,999999,999999,999999,9999,52,4.45,10,10,9999,99999,9,999999999,999,0.999,0.0,99,0.2,0.0,0
2026,2,20,18,60,?9?9?9?9,-6.9,-12.2,66,99210,9999,9999,9999,77,81,66,999999,999999,999999,9999,66,4.86,10,10,9999,99999,9,999999999,999,0.999,0.0,99,0.2,0.0,0
2026,2,20,19,60,?9?9?9?9,-7.9,-13.4,65,99210,9999,9999,9999,3,0,3,999999,999999,999999,9999,61,5.73,10,10,9999,99999,9,999999999,999,0.999,0.0,99,0.2,0.0,0
2026,2,20,20,60,?9?9?9?9,-7.9,-14.9,57,99170,9999,9999,9999,0,0,0,999999,999999,999999,9999,65,5.64,10,10,9999,99999,9,999999999,999,0.999,0.0,99,0.2,0.0,0
2026,2,20,21,60,?9?9?9?9,-8.1,-15.6,55,99270,9999,9999,9999,0,0,0,999999,999999,999999,9999,66,5.44,10,10,9999,99999,9,999999999,999,0.999,0.0,99,0.2,0.0,0
2026,2,20,22,60,?9?9?9?9,-8.7,-16.2,54,99310,9999,9999,9999,0,0,0,999999,999999,999999,9999,64,5.86,10,10,9999,99999,9,999999999,999,0.999,0.0,99,0.2,0.0,0
2026,2,20,23,60,?9?9?9?9,-9.3,-16.5,56,99320,9999,9999,9999,0,0,0,999999,999999,999999,9999,67,5.58,10,10,9999,99999,9,999999999,999,0.999,0.0,99,0.2,0.0,0
2026,2,20,24,60,?9?9?9?9,-9.9,-16.6,58,99350,9999,9999,9999,0,0,0,999999,999999,999999,9999,68,5.4,10,10,9999,99999,9,999999999,999,0.999,0.0,99,0.2,0.0,0
2026,2,21,1,60,?9?9?9?9,-10.6,-16.9,60,99360,9999,9999,9999,0,0,0,999999,999999,999999,9999,65,5.62,9,9,9999,99999,9,999999999,999,0.999,0.0,99,0.2,0.0,0
2026,2,21,2,60,?9?9?9?9,-11.2,-17.5,60,99350,9999,9999,9999,0,0,0,999999,999999,999999,9999,53,5.35,10,10,9999,99999,9,999999999,999,0.999,0.0,99,0.2,0.0,0
2026,2,21,3,60,?9?9?9?9,-11.1,-17.1,61,99360,9999,9999,9999,0,0,0,999999,999999,999999,9999,50,4.76,10,10,9999,99999,9,999999999,999,0.999,0.0,99,0.2,0.0,0
2026,2,21,4,60,?9?9?9?9,-11.6,-17.0,64,99370,9999,9999,9999,0,0,0,999999,999999,999999,9999,45,4.03,10,10,9999,99999,9,999999999,999,0.999,0.0,99,0.2,0.0,0
2026,2,21,5,60,?9?9?9?9,-12.6,-17.4,67,99460,9999,9999,9999,0,0,0,999999,999999,999999,9999,33,3.65,2,2,9999,99999,9,999999999,999,0.999,0.0,99,0.2,0.0,0
2026,2,21,6,60,?9?9?9?9,-13.9,-18.0,71,99520,9999,9999,9999,0,0,0,999999,999999,999999,9999,19,3.59,0,0,9999,99999,9,999999999,999,0.999,0.0,99,0.2,0.0,0
2026,2,21,7,60,?9?9?9?9,-15.9,-19.2,75,99620,9999,9999,9999,0,0,0,999999,999999,999999,9999,6,3.37,0,0,9999,99999,9,999999999,999,0.999,0.0,99,0.2,0.0,0
2026,2,21,8,60,?9?9?9?9,-15.8,-19.8,71,99710,9999,9999,9999,1,0,1,999999,999999,999999,9999,359,4.2,0,0,9999,99999,9,999999999,999,0.999,0.0,99,0.2,0.0,0
2026,2,21,9,60,?9?9?9?9,-14.8,-19.9,65,99820,9999,9999,9999,91,518,31,999999,999999,999999,9999,358,3.75,0,0,9999,99999,9,999999999,999,0.999,0.0,99,0.2,0.0,0
2026,2,21,10,60,?9?9?9?9,-12.9,-19.4,59,99920,9999,9999,9999,263,750,62,999999,999999,999999,9999,6,3.06,0,0,9999,99999,9,999999999,999,0.999,0.0,99,0.2,0.0,0
2026,2,21,11,60,?9?9?9?9,-10.6,-18.8,51,99970,9999,9999,9999,421,865,79,999999,999999,999999,9999,16,2.5,0,0,9999,99999,9,999999999,999,0.999,0.0,99,0.2,0.0,0
2026,2,21,12,60,?9?9?9?9,-8.6,-18.4,45,99990,9999,9999,9999,535,917,89,999999,999999,999999,9999,36,1.79,0,0,9999,99999,9,999999999,999,0.999,0.0,99,0.2,0.0,0
2026,2,21,13,60,?9?9?9?9,-6.9,-17.5,43,100030,9999,9999,9999,594,933,94,999999,999999,999999,9999,34,1.26,0,0,9999,99999,9,999999999,999,0.999,0.0,99,0.2,0.0,0
2026,2,21,14,60,?9?9?9?9,-4.3,-16.7,37,100050,9999,9999,9999,595,927,95,999999,999999,999999,9999,27,1.45,0,0,9999,99999,9,999999999,999,0.999,0.0,99,0.2,0.0,0
2026,2,21,15,60,?9?9?9?9,-3.0,-15.4,38,100070,9999,9999,9999,539,900,91,999999,999999,999999,9999,47,0.88,0,0,9999,99999,9,999999999,999,0.999,0.0,99,0.2,0.0,0
2026,2,21,16,60,?9?9?9?9,-2.7,-13.9,42,100130,9999,9999,9999,430,845,81,999999,999999,999999,9999,45,0.64,0,0,9999,99999,9,999999999,999,0.999,0.0,99,0.2,0.0,0
2026,2,21,17,60,?9?9?9?9,-3.2,-14.1,42,100120,9999,9999,9999,281,738,66,999999,999999,999999,9999,25,0.94,0,0,9999,99999,9,999999999,999,0.999,0.0,99,0.2,0.0,0
2026,2,21,18,60,?9?9?9?9,-5.7,-14.1,51,100120,9999,9999,9999,113,533,38,999999,999999,999999,9999,47,0.81,0,0,9999,99999,9,999999999,999,0.999,0.0,99,0.2,0.0,0
2026,2,21,19,60,?9?9?9?9,-9.0,-14.6,64,100180,9999,9999,9999,5,43,3,999999,999999,999999,9999,43,1.17,0,0,9999,99999,9,999999999,999,0.999,0.0,99,0.2,0.0,0
2026,2,21,20,60,?9?9?9?9,-10.6,-15.3,68,100230,9999,9999,9999,0,0,0,999999,999999,999999,9999,33,1.48,0,0,9999,99999,9,999999999,999,0.999,0.0,99,0.2,0.0,0
2026,2,21,21,60,?9?9?9?9,-11.9,-15.8,72,100280,9999,9999,9999,0,0,0,999999,999999,999999,9999,38,1.39,0,0,9999,99999,9,999999999,999,0.999,0.0,99,0.2,0.0,0
2026,2,21,22,60,?9?9?9?9,-13.4,-16.4,78,100340,9999,9999,9999,0,0,0,999999,999999,999999,9999,28,1.99,0,0,9999,99999,9,999999999,999,0.999,0.0,99,0.2,0.0,0
2026,2,21,23,60,?9?9?9?9,-13.4,-16.2,80,100360,9999,9999,9999,0,0,0,999999,999999,999999,9999,13,1.95,0,0,9999,99999,9,999999999,999,0.999,0.0,99,0.2,0.0,0
2026,2,21,24,60,?9?9?9?9,-14.2,-16.6,82,100370,9999,9999,9999,0,0,0,999999,999999,999999,9999,357,1.65,0,0,9999,99999,9,999999999,999,0.999,0.0,99,0.2,0.0,0
2026,2,22,1,60,?9?9?9?9,-15.0,-17.2,83,100420,9999,9999,9999,0,0,0,999999,999999,999999,9999,331,1.25,0,0,9999,99999,9,999999999,999,0.999,0.0,99,0.2,0.0,0
2026,2,22,2,60,?9?9?9?9,-16.4,-18.8,81,100430,9999,9999,9999,0,0,0,999999,999999,999999,9999,348,1.64,0,0,9999,99999,9,999999999,999,0.999,0.0,99,0.2,0.0,0
2026,2,22,3,60,?9?9?9?9,-15.5,-18.4,79,100450,9999,9999,9999,0,0,0,999999,999999,999999,9999,2,2.55,0,0,9999,99999,9,999999999,999,0.999,0.0,99,0.2,0.0,0
2026,2,22,4,60,?9?9?9?9,-14.0,-17.3,76,100440,9999,9999,9999,0,0,0,999999,999999,999999,9999,20,3.4,0,0,9999,99999,9,999999999,999,0.999,0.0,99,0.2,0.0,0
2026,2,22,5,60,?9?9?9?9,-13.1,-16.6,75,100440,9999,9999,9999,0,0,0,999999,999999,999999,9999,28,3.47,0,0,9999,99999,9,999999999,999,0.999,0.0,99,0.2,0.0,0
2026,2,22,6,60,?9?9?9?9,-12.6,-15.9,77,100440,9999,9999,9999,0,0,0,999999,999999,999999,9999,39,3.66,0,0,9999,99999,9,999999999,999,0.999,0.0,99,0.2,0.0,0
2026,2,22,7,60,?9?9?9?9,-12.1,-15.2,78,100440,9999,9999,9999,0,0,0,999999,999999,999999,9999,46,3.96,0,0,9999,99999,9,999999999,999,0.999,0.0,99,0.2,0.0,0
2026,2,22,8,60,?9?9?9?9,-11.9,-14.3,82,100490,9999,9999,9999,2,40,1,999999,999999,999999,9999,47,4.03,0,0,9999,99999,9,999999999,999,0.999,0.0,99,0.2,0.0,0
2026,2,22,9,60,?9?9?9?9,-10.2,-13.4,78,100510,9999,9999,9999,90,479,33,999999,999999,999999,9999,50,3.76,0,0,9999,99999,9,999999999,999,0.999,0.0,99,0.2,0.0,0
2026,2,22,10,60,?9?9?9?9,-8.2,-12.4,72,100510,9999,9999,9999,256,702,64,999999,999999,999999,9999,53,3.39,0,0,9999,99999,9,999999999,999,0.999,0.0,99,0.2,0.0,0
2026,2,22,11,60,?9?9?9?9,-6.5,-11.1,70,100500,9999,9999,9999,410,821,81,999999,999999,999999,9999,63,3.42,0,0,9999,99999,9,999999999,999,0.999,0.0,99,0.2,0.0,0
2026,2,22,12,60,?9?9?9?9,-4.8,-9.9,67,100420,9999,9999,9999,525,880,92,999999,999999,999999,9999,66,3.67,0,0,9999,99999,9,999999999,999,0.999,0.0,99,0.2,0.0,0
2026,2,22,13,60,?9?9?9?9,-3.3,-9.1,64,100380,9999,9999,9999,588,909,96,999999,999999,999999,9999,74,3.91,0,0,9999,99999,9,999999999,999,0.999,0.0,99,0.2,0.0,0
2026,2,22,14,60,?9?9?9?9,-1.9,-8.4,61,100290,9999,9999,9999,593,910,97,999999,999999,999999,9999,74,3.96,0,0,9999,99999,9,999999999,999,0.999,0.0,99,0.2,0.0,0
2026,2,22,15,60,?9?9?9?9,-1.4,-8.4,59,100240,9999,9999,9999,540,891,92,999999,999999,999999,9999,72,3.78,0,0,9999,99999,9,999999999,999,0.999,0.0,99,0.2,0.0,0
2026,2,22,16,60,?9?9?9?9,-1.4,-8.3,59,100210,9999,9999,9999,433,840,82,999999,999999,999999,9999,73,3.56,0,0,9999,99999,9,999999999,999,0.999,0.0,99,0.2,0.0,0
2026,2,22,17,60,?9?9?9?9,-2.0,-8.1,63,100210,9999,9999,9999,284,737,66,999999,999999,999999,9999,72,2.94,0,0,9999,99999,9,999999999,999,0.999,0.0,99,0.2,0.0,0
2026,2,22,18,60,?9?9?9?9,-3.7,-8.4,70,100190,9999,9999,9999,117,530,40,999999,999999,999999,9999,73,2.83,0,0,9999,99999,9,999999999,999,0.999,0.0,99,0.2,0.0,0
2026,2,22,19,60,?9?9?9?9,-5.9,-9.1,78,100230,9999,9999,9999,6,62,3,999999,999999,999999,9999,69,3.32,0,0,9999,99999,9,999999999,999,0.999,0.0,99,0.2,0.0,0
2026,2,22,20,60,?9?9?9?9,-6.3,-9.4,79,100210,9999,9999,9999,0,0,0,999999,999999,999999,9999,65,3.8,0,0,9999,99999,9,999999999,999,0.999,0.0,99,0.2,0.0,0
2026,2,22,21,60,?9?9?9?9,-6.5,-9.6,79,100120,9999,9999,9999,0,0,0,999999,999999,999999,9999,51,3.73,1,1,9999,99999,9,999999999,999,0.999,0.0,99,0.2,0.0,0
2026,2,22,22,60,?9?9?9?9,-7.2,-10.3,78,100090,9999,9999,9999,0,0,0,999999,999999,999999,9999,54,3.72,3,3,9999,99999,9,999999999,999,0.999,0.0,99,0.2,0.0,0
2026,2,22,23,60,?9?9?9?9,-7.3,-10.9,75,100020,9999,9999,9999,0,0,0,999999,999999,999999,9999,48,3.68,4,4,9999,99999,9,999999999,999,0.999,0.0,99,0.2,0.0,0
2026,2,22,24,60,?9?9?9?9,-7.6,-11.2,75,100010,9999,9999,9999,0,0,0,999999,999999,999999,9999,51,3.59,1,1,9999,99999,9,999999999,999,0.999,0.0,99,0.2,0.0,0
2026,2,23,1,60,?9?9?9?9,-7.8,-11.2,76,100010,9999,9999,9999,0,0,0,999999,999999,999999,9999,53,3.78,0,0,9999,99999,9,999999999,999,0.999,0.0,99,0.2,0.0,0
2026,2,23,2,60,?9?9?9?9,-7.9,-11.6,75,99890,9999,9999,9999,0,0,0,999999,999999,999999,9999,41,4.0,0,0,9999,99999,9,999999999,999,0.999,0.0,99,0.2,0.0,0
2026,2,23,3,60,?9?9?9?9,-8.1,-11.8,74,99870,9999,9999,9999,0,0,0,999999,999999,999999,9999,38,3.42,1,1,9999,99999,9,999999999,999,0.999,0.0,99,0.2,0.0,0
2026,2,23,4,60,?9?9?9?9,-8.7,-12.4,75,99830,9999,9999,9999,0,0,0,999999,999999,999999,9999,33,3.22,10,10,9999,99999,9,999999999,999,0.999,0.0,99,0.2,0.0,0
2026,2,23,5,60,?9?9?9?9,-9.0,-12.9,74,99790,9999,9999,9999,0,0,0,999999,999999,999999,9999,27,3.42,10,10,9999,99999,9,999999999,999,0.999,0.0,99,0.2,0.0,0
2026,2,23,6,60,?9?9?9?9,-9.9,-13.6,74,99750,9999,9999,9999,0,0,0,999999,999999,999999,9999,25,3.31,4,4,9999,99999,9,999999999,999,0.999,0.0,99,0.2,0.0,0
2026,2,23,7,60,?9?9?9?9,-10.6,-14.2,75,99690,9999,9999,9999,0,0,0,999999,999999,999999,9999,13,3.49,10,10,9999,99999,9,999999999,999,0.999,0.0,99,0.2,0.0,0
2026,2,23,8,60,?9?9?9?9,-10.6,-14.5,73,99660,9999,9999,9999,2,0,2,999999,999999,999999,9999,2,3.7,10,10,9999,99999,9,999999999,999,0.999,0.0,99,0.2,0.0,0
2026,2,23,9,60,?9?9?9?9,-10.1,-15.0,67,99690,9999,9999,9999,80,225,52,999999,999999,999999,9999,356,3.36,10,10,9999,99999,9,999999999,999,0.999,0.0,99,0.2,0.0,0
2026,2,23,10,60,?9?9?9?9,-8.5,-14.1,64,99580,9999,9999,9999,219,319,130,999999,999999,999999,9999,355,3.11,10,10,9999,99999,9,999999999,999,0.999,0.0,99,0.2,0.0,0
2026,2,23,11,60,?9?9?9?9,-5.8,-13.4,55,99560,9999,9999,9999,375,519,164,999999,999999,999999,9999,5,2.61,10,10,9999,99999,9,999999999,999,0.999,0.0,99,0.2,0.0,0
2026,2,23,12,60,?9?9?9?9,-3.7,-12.9,49,99440,9999,9999,9999,478,551,204,999999,999999,999999,9999,7,2.97,10,10,9999,99999,9,999999999,999,0.999,0.0,99,0.2,0.0,0
2026,2,23,13,60,?9?9?9?9,-2.1,-12.6,44,99370,9999,9999,9999,510,456,261,999999,999999,999999,9999,27,2.12,10,10,9999,99999,9,999999999,999,0.999,0.0,99,0.2,0.0,0
2026,2,23,14,60,?9?9?9?9,-0.9,-12.9,39,99220,9999,9999,9999,517,454,267,999999,999999,999999,9999,15,1.71,10,10,9999,99999,9,999999999,999,0.999,0.0,99,0.2,0.0,0
2026,2,23,15,60,?9?9?9?9,-0.2,-12.8,38,99090,9999,9999,9999,494,565,207,999999,999999,999999,9999,350,2.64,10,10,9999,99999,9,999999999,999,0.999,0.0,99,0.2,0.0,0
2026,2,23,16,60,?9?9?9?9,0.2,-12.0,39,99020,9999,9999,9999,422,714,120,999999,999999,999999,9999,353,3.68,10,10,9999,99999,9,999999999,999,0.999,0.0,99,0.2,0.0,0
2026,2,23,17,60,?9?9?9?9,-0.2,-11.0,44,98970,9999,9999,9999,239,329,140,999999,999999,999999,9999,359,4.0,10,10,9999,99999,9,999999999,999,0.999,0.0,99,0.2,0.0,0
2026,2,23,18,60,?9?9?9?9,-2.8,-10.6,55,98990,9999,9999,9999,107,327,58,999999,999999,999999,9999,28,2.37,10,10,9999,99999,9,999999999,999,0.999,0.0,99,0.2,0.0,0
2026,2,23,19,60,?9?9?9?9,-5.6,-10.8,67,98980,9999,9999,9999,6,20,5,999999,999999,999999,9999,358,3.55,10,10,9999,99999,9,999999999,999,0.999,0.0,99,0.2,0.0,0
2026,2,23,20,60,?9?9?9?9,-6.0,-11.9,63,98970,9999,9999,9999,0,0,0,999999,999999,999999,9999,355,4.37,10,10,9999,99999,9,999999999,999,0.999,0.0,99,0.2,0.0,0
2026,2,23,21,60,?9?9?9?9,-5.6,-12.2,60,98950,9999,9999,9999,0,0,0,999999,999999,999999,9999,356,4.91,10,10,9999,99999,9,999999999,999,0.999,0.0,99,0.2,0.0,0
2026,2,23,22,60,?9?9?9?9,-6.3,-12.6,61,98920,9999,9999,9999,0,0,0,999999,999999,999999,9999,355,4.87,10,10,9999,99999,9,999999999,999,0.999,0.0,99,0.2,0.0,0
2026,2,23,23,60,?9?9?9?9,-7.1,-12.8,64,98870,9999,9999,9999,0,0,0,999999,999999,999999,9999,344,4.67,10,10,9999,99999,9,999999999,999,0.999,0.0,99,0.2,0.0,0
2026,2,23,24,60,?9?9?9?9,-8.1,-12.1,73,98840,9999,9999,9999,0,0,0,999999,999999,999999,9999,339,5.89,10,10,9999,99999,9,999999999,999,0.999,0.0,99,0.2,0.0,0
2026,2,24,1,60,?9?9?9?9,-8.9,-12.6,75,98830,9999,9999,9999,0,0,0,999999,999999,999999,9999,338,6.24,10,10,9999,99999,9,999999999,999,0.999,0.0,99,0.2,0.0,0
2026,2,24,2,60,?9?9?9?9,-10.0,-14.1,72,98820,9999,9999,9999,0,0,0,999999,999999,999999,9999,335,6.71,10,10,9999,99999,9,999999999,999,0.999,0.0,99,0.2,0.0,0
2026,2,24,3,60,?9?9?9?9,-11.1,-15.1,72,98830,9999,9999,9999,0,0,0,999999,999999,999999,9999,335,6.44,10,10,9999,99999,9,999999999,999,0.999,0.0,99,0.2,0.0,0
2026,2,24,4,60,?9?9?9?9,-12.0,-16.0,72,98850,9999,9999,9999,0,0,0,999999,999999,999999,9999,335,6.22,10,10,9999,99999,9,999999999,999,0.999,0.0,99,0.2,0.0,0
2026,2,24,5,60,?9?9?9?9,-13.1,-17.0,73,98870,9999,9999,9999,0,0,0,999999,999999,999999,9999,335,6.22,10,10,9999,99999,9,999999999,999,0.999,0.0,99,0.2,0.0,0
2026,2,24,6,60,?9?9?9?9,-14.1,-17.9,73,98860,9999,9999,9999,0,0,0,999999,999999,999999,9999,334,6.06,8,8,9999,99999,9,999999999,999,0.999,0.0,99,0.2,0.0,0
2026,2,24,7,60,?9?9?9?9,-15.1,-18.7,74,98890,9999,9999,9999,0,0,0,999999,999999,999999,9999,332,5.93,6,6,9999,99999,9,999999999,999,0.999,0.0,99,0.2,0.0,0
2026,2,24,8,60,?9?9?9?9,-15.9,-19.6,73,99010,9999,9999,9999,3,25,2,999999,999999,999999,9999,330,6.0,0,0,9999,99999,9,999999999,999,0.999,0.0,99,0.2,0.0,0
2026,2,24,9,60,?9?9?9?9,-15.3,-19.8,68,99030,9999,9999,9999,101,486,38,999999,999999,999999,9999,331,5.04,0,0,9999,99999,9,999999999,999,0.999,0.0,99,0.2,0.0,0
2026,2,24,10,60,?9?9?9?9,-14.2,-20.0,62,99040,9999,9999,9999,274,735,65,999999,999999,999999,9999,328,5.04,6,6,9999,99999,9,999999999,999,0.999,0.0,99,0.2,0.0,0
2026,2,24,11,60,?9?9?9?9,-12.5,-19.5,56,99060,9999,9999,9999,420,777,100,999999,999999,999999,9999,319,3.51,10,10,9999,99999,9,999999999,999,0.999,0.0,99,0.2,0.0,0
2026,2,24,12,60,?9?9?9?9,-10.9,-18.9,52,99040,9999,9999,9999,515,714,156,999999,999999,999999,9999,316,2.51,5,5,9999,99999,9,999999999,999,0.999,0.0,99,0.2,0.0,0
2026,2,24,13,60,?9?9?9?9,-9.4,-18.2,49,98980,9999,9999,9999,600,873,118,999999,999999,999999,9999,302,2.07,0,0,9999,99999,9,999999999,999,0.999,0.0,99,0.2,0.0,0
2026,2,24,14,60,?9?9?9?9,-8.9,-18.2,47,98940,9999,9999,9999,615,932,97,999999,999999,999999,9999,292,2.76,0,0,9999,99999,9,999999999,999,0.999,0.0,99,0.2,0.0,0
2026,2,24,15,60,?9?9?9?9,-8.2,-17.8,46,98900,9999,9999,9999,560,906,95,999999,999999,999999,9999,279,2.58,0,0,9999,99999,9,999999999,999,0.999,0.0,99,0.2,0.0,0
2026,2,24,16,60,?9?9?9?9,-7.4,-16.9,47,98870,9999,9999,9999,447,834,90,999999,999999,999999,9999,265,2.91,0,0,9999,99999,9,999999999,999,0.999,0.0,99,0.2,0.0,0
2026,2,24,17,60,?9?9?9?9,-7.1,-16.0,49,98870,9999,9999,9999,285,648,87,999999,999999,999999,9999,266,2.66,1,1,9999,99999,9,999999999,999,0.999,0.0,99,0.2,0.0,0
2026,2,24,18,60,?9?9?9?9,-8.9,-15.3,60,98910,9999,9999,9999,124,506,46,999999,999999,999999,9999,217,2.39,0,0,9999,99999,9,999999999,999,0.999,0.0,99,0.2,0.0,0
2026,2,24,19,60,?9?9?9?9,-12.1,-15.2,77,98930,9999,9999,9999,9,75,5,999999,999999,999999,9999,210,2.49,0,0,9999,99999,9,999999999,999,0.999,0.0,99,0.2,0.0,0
2026,2,24,20,60,?9?9?9?9,-14.1,-16.4,83,98980,9999,9999,9999,0,0,0,999999,999999,999999,9999,213,3.54,0,0,9999,99999,9,999999999,999,0.999,0.0,99,0.2,0.0,0
2026,2,24,21,60,?9?9?9?9,-15.0,-17.2,83,98980,9999,9999,9999,0,0,0,999999,999999,999999,9999,227,2.44,0,0,9999,99999,9,999999999,999,0.999,0.0,99,0.2,0.0,0
2026,2,24,22,60,?9?9?9?9,-16.4,-18.8,81,98960,9999,9999,9999,0,0,0,999999,999999,999999,9999,229,1.91,0,0,9999,99999,9,999999999,999,0.999,0.0,99,0.2,0.0,0
2026,2,24,23,60,?9?9?9?9,-17.6,-19.9,83,98900,9999,9999,9999,0,0,0,999999,999999,999999,9999,227,0.88,1,1,9999,99999,9,999999999,999,0.999,0.0,99,0.2,0.0,0
2026,2,24,24,60,?9?9?9?9,-18.7,-20.5,86,98840,9999,9999,9999,0,0,0,999999,999999,999999,9999,209,0.63,0,0,9999,99999,9,999999999,999,0.999,0.0,99,0.2,0.0,0
2026,2,25,1,60,?9?9?9?9,-19.5,-20.9,88,98890,9999,9999,9999,0,0,0,999999,999999,999999,9999,225,0.64,8,8,9999,99999,9,999999999,999,0.999,0.0,99,0.2,0.0,0
2026,2,25,2,60,?9?9?9?9,-19.9,-21.4,88,98880,9999,9999,9999,0,0,0,999999,999999,999999,9999,172,0.35,3,3,9999,99999,9,999999999,999,0.999,0.0,99,0.2,0.0,0
2026,2,25,3,60,?9?9?9?9,-20.6,-21.8,91,98860,9999,9999,9999,0,0,0,999999,999999,999999,9999,151,0.63,6,6,9999,99999,9,999999999,999,0.999,0.0,99,0.2,0.0,0
2026,2,25,4,60,?9?9?9?9,-21.2,-22.3,91,98780,9999,9999,9999,0,0,0,999999,999999,999999,9999,129,0.96,10,10,9999,99999,9,999999999,999,0.999,0.0,99,0.2,0.0,0
2026,2,25,5,60,?9?9?9?9,-20.7,-22.3,87,98710,9999,9999,9999,0,0,0,999999,999999,999999,9999,94,1.4,10,10,9999,99999,9,999999999,999,0.999,0.0,99,0.2,0.0,0
2026,2,25,6,60,?9?9?9?9,-19.0,-21.1,83,98660,9999,9999,9999,0,0,0,999999,999999,999999,9999,53,1.57,10,10,9999,99999,9,999999999,999,0.999,0.0,99,0.2,0.0,0
2026,2,25,7,60,?9?9?9?9,-17.9,-20.2,82,98590,9999,9999,9999,0,0,0,999999,999999,999999,9999,47,2.44,10,10,9999,99999,9,999999999,999,0.999,0.001,99,0.2,0.1,1
2026,2,25,8,60,?9?9?9?9,-16.9,-19.2,82,98580,9999,9999,9999,2,0,2,999999,999999,999999,9999,64,3.18,10,10,9999,99999,9,999999999,999,0.999,0.001,99,0.2,0.1,1
2026,2,25,9,60,?9?9?9?9,-15.9,-18.6,79,98510,9999,9999,9999,44,0,44,999999,999999,999999,9999,60,3.05,10,10,9999,99999,9,999999999,999,0.999,0.002,99,0.2,0.3,1
2026,2,25,10,60,?9?9?9?9,-14.6,-17.5,78,98390,9999,9999,9999,96,0,96,999999,999999,999999,9999,67,2.55,10,10,9999,99999,9,999999999,999,0.999,0.003,99,0.2,0.5,1
2026,2,25,11,60,?9?9?9?9,-12.9,-16.2,76,98320,9999,9999,9999,156,0,156,999999,999999,999999,9999,77,2.36,10,10,9999,99999,9,999999999,999,0.999,0.002,99,0.2,0.3,1
2026,2,25,12,60,?9?9?9?9,-10.6,-14.4,74,98230,9999,9999,9999,260,18,251,999999,999999,999999,9999,85,2.66,10,10,9999,99999,9,999999999,999,0.999,0.001,99,0.2,0.2,1
2026,2,25,13,60,?9?9?9?9,-8.6,-12.6,73,98160,9999,9999,9999,292,40,270,999999,999999,999999,9999,106,2.29,10,10,9999,99999,9,999999999,999,0.999,0.001,99,0.2,0.1,1
2026,2,25,14,60,?9?9?9?9,-7.7,-11.3,75,98090,9999,9999,9999,305,25,291,999999,999999,999999,9999,129,2.77,10,10,9999,99999,9,999999999,999,0.999,0.001,99,0.2,0.1,1
2026,2,25,15,60,?9?9?9?9,-7.1,-10.4,77,98020,9999,9999,9999,259,19,249,999999,999999,999999,9999,120,2.93,10,10,9999,99999,9,999999999,999,0.999,0.001,99,0.2,0.2,1
2026,2,25,16,60,?9?9?9?9,-6.2,-9.1,81,98000,9999,9999,9999,153,9,149,999999,999999,999999,9999,124,3.02,10,10,9999,99999,9,999999999,999,0.999,0.002,99,0.2,0.3,1
2026,2,25,17,60,?9?9?9?9,-5.7,-7.7,86,98000,9999,9999,9999,69,0,69,999999,999999,999999,9999,123,2.32,10,10,9999,99999,9,999999999,999,0.999,0.004,99,0.2,0.6,1
2026,2,25,18,60,?9?9?9?9,-5.7,-7.1,90,97990,9999,9999,9999,26,0,26,999999,999999,999999,9999,92,1.4,10,10,9999,99999,9,999999999,999,0.999,0.004,99,0.2,0.6,1
2026,2,25,19,60,?9?9?9?9,-5.9,-6.9,93,98010,9999,9999,9999,2,0,2,999999,999999,999999,9999,72,1.42,10,10,9999,99999,9,999999999,999,0.999,0.003,99,0.2,0.4,1
2026,2,25,20,60,?9?9?9?9,-6.7,-7.6,93,98070,9999,9999,9999,0,0,0,999999,999999,999999,9999,63,1.23,10,10,9999,99999,9,999999999,999,0.999,0.001,99,0.2,0.2,1
2026,2,25,21,60,?9?9?9?9,-6.7,-7.6,93,98080,9999,9999,9999,0,0,0,999999,999999,999999,9999,83,1.21,10,10,9999,99999,9,999999999,999,0.999,0.001,99,0.2,0.2,1
2026,2,25,22,60,?9?9?9?9,-7.3,-8.1,94,98120,9999,9999,9999,0,0,0,999999,999999,999999,9999,225,0.21,10,10,9999,99999,9,999999999,999,0.999,0.0,99,0.2,0.0,0
2026,2,25,23,60,?9?9?9?9,-7.5,-8.2,95,98170,9999,9999,9999,0,0,0,999999,999999,999999,9999,237,1.19,10,10,9999,99999,9,999999999,999,0.999,0.0,99,0.2,0.0,0
2026,2,25,24,60,?9?9?9?9,-7.2,-8.1,93,98150,9999,9999,9999,0,0,0,999999,999999,999999,9999,324,0.68,10,10,9999,99999,9,999999999,999,0.999,0.0,99,0.2,0.0,0
2026,2,26,1,60,?9?9?9?9,-8.2,-9.2,93,98150,9999,9999,9999,0,0,0,999999,999999,999999,9999,330,0.69,10,10,9999,99999,9,999999999,999,0.999,0.0,99,0.2,0.0,0
2026,2,26,2,60,?9?9?9?9,-6.7,-7.8,92,98160,9999,9999,9999,0,0,0,999999,999999,999999,9999,322,1.21,10,10,9999,99999,9,999999999,999,0.999,0.001,99,0.2,0.1,1
2026,2,26,3,60,?9?9?9?9,-8.4,-9.6,91,98200,9999,9999,9999,0,0,0,999999,999999,999999,9999,327,1.37,10,10,9999,99999,9,999999999,999,0.999,0.001,99,0.2,0.1,1
2026,2,26,4,60,?9?9?9?9,-8.8,-10.0,91,98240,9999,9999,9999,0,0,0,999999,999999,999999,9999,347,0.46,10,10,9999,99999,9,999999999,999,0.999,0.0,99,0.2,0.0,0
2026,2,26,5,60,?9?9?9?9,-8.8,-10.2,89,98330,9999,9999,9999,0,0,0,999999,999999,999999,9999,264,1.0,10,10,9999,99999,9,999999999,999,0.999,0.001,99,0.2,0.1,1
2026,2,26,6,60,?9?9?9?9,-8.6,-10.4,86,98410,9999,9999,9999,0,0,0,999999,999999,999999,9999,251,2.01,8,8,9999,99999,9,999999999,999,0.999,0.0,99,0.2,0.0,0
2026,2,26,7,60,?9?9?9?9,-7.4,-9.7,84,98500,9999,9999,9999,0,0,0,999999,999999,999999,9999,284,3.6,3,3,9999,99999,9,999999999,999,0.999,0.0,99,0.2,0.0,0
2026,2,26,8,60,?9?9?9?9,-8.8,-11.1,83,98630,9999,9999,9999,4,22,3,999999,999999,999999,9999,295,3.53,2,2,9999,99999,9,999999999,999,0.999,0.0,99,0.2,0.0,0
2026,2,26,9,60,?9?9?9?9,-7.3,-11.6,71,98760,9999,9999,9999,106,413,48,999999,999999,999999,9999,294,4.39,1,1,9999,99999,9,999999999,999,0.999,0.0,99,0.2,0.0,0
2026,2,26,10,60,?9?9?9?9,-6.2,-12.4,62,98840,9999,9999,9999,284,728,69,999999,999999,999999,9999,292,4.33,3,3,9999,99999,9,999999999,999,0.999,0.0,99,0.2,0.0,0
2026,2,26,11,60,?9?9?9?9,-5.8,-14.3,51,98940,9999,9999,9999,448,868,81,999999,999999,999999,9999,282,4.55,3,3,9999,99999,9,999999999,999,0.999,0.0,99,0.2,0.0,0
2026,2,26,12,60,?9?9?9?9,-5.8,-14.9,49,99000,9999,9999,9999,547,802,135,999999,999999,999999,9999,275,4.21,7,7,9999,99999,9,999999999,999,0.999,0.0,99,0.2,0.0,0
2026,2,26,13,60,?9?9?9?9,-5.6,-15.1,47,99080,9999,9999,9999,627,927,105,999999,999999,999999,9999,268,3.8,4,4,9999,99999,9,999999999,999,0.999,0.0,99,0.2,0.0,0
2026,2,26,14,60,?9?9?9?9,-4.9,-14.4,48,99030,9999,9999,9999,626,918,106,999999,999999,999999,9999,256,4.07,10,10,9999,99999,9,999999999,999,0.999,0.0,99,0.2,0.0,0
2026,2,26,15,60,?9?9?9?9,-4.8,-14.3,48,99060,9999,9999,9999,534,663,187,999999,999999,999999,9999,256,4.07,10,10,9999,99999,9,999999999,999,0.999,0.0,99,0.2,0.0,0
2026,2,26,16,60,?9?9?9?9,-5.2,-14.2,49,99110,9999,9999,9999,346,240,241,999999,999999,999999,9999,268,3.55,8,8,9999,99999,9,999999999,999,0.999,0.0,99,0.2,0.0,0
2026,2,26,17,60,?9?9?9?9,-6.1,-14.6,51,99160,9999,9999,9999,211,152,163,999999,999999,999999,9999,276,3.62,9,9,9999,99999,9,999999999,999,0.999,0.0,99,0.2,0.0,0
2026,2,26,18,60,?9?9?9?9,-7.6,-15.1,55,99240,9999,9999,9999,96,153,71,999999,999999,999999,9999,284,3.6,10,10,9999,99999,9,999999999,999,0.999,0.0,99,0.2,0.0,0
2026,2,26,19,60,?9?9?9?9,-9.9,-15.6,63,99350,9999,9999,9999,10,52,7,999999,999999,999999,9999,286,3.32,6,6,9999,99999,9,999999999,999,0.999,0.0,99,0.2,0.0,0
2026,2,26,20,60,?9?9?9?9,-11.9,-16.2,70,99430,9999,9999,9999,0,0,0,999999,999999,999999,9999,292,3.14,3,3,9999,99999,9,999999999,999,0.999,0.0,99,0.2,0.0,0
2026,2,26,21,60,?9?9?9?9,-13.6,-17.5,72,99520,9999,9999,9999,0,0,0,999999,999999,999999,9999,295,2.04,0,0,9999,99999,9,999999999,999,0.999,0.0,99,0.2,0.0,0
2026,2,26,22,60,?9?9?9?9,-14.9,-18.8,72,99580,9999,9999,9999,0,0,0,999999,999999,999999,9999,298,2.04,0,0,9999,99999,9,999999999,999,0.999,0.0,99,0.2,0.0,0
2026,2,26,23,60,?9?9?9?9,-16.5,-20.0,74,99570,9999,9999,9999,0,0,0,999999,999999,999999,9999,303,1.73,2,2,9999,99999,9,999999999,999,0.999,0.0,99,0.2,0.0,0
2026,2,26,24,60,?9?9?9?9,-17.5,-20.7,76,99550,9999,9999,9999,0,0,0,999999,999999,999999,9999,310,1.63,3,3,9999,99999,9,999999999,999,0.999,0.0,99,0.2,0.0,0
2026,2,27,1,60,?9?9?9?9,-17.9,-21.0,77,99540,9999,9999,9999,0,0,0,999999,999999,999999,9999,323,1.75,7,7,9999,99999,9,999999999,999,0.999,0.0,99,0.2,0.0,0
2026,2,27,2,60,?9?9?9?9,-18.4,-21.8,75,99590,9999,9999,9999,0,0,0,999999,999999,999999,9999,329,1.64,5,5,9999,99999,9,999999999,999,0.999,0.0,99,0.2,0.0,0
2026,2,27,3,60,?9?9?9?9,-18.2,-21.5,75,99600,9999,9999,9999,0,0,0,999999,999999,999999,9999,328,1.82,6,6,9999,99999,9,999999999,999,0.999,0.0,99,0.2,0.0,0
2026,2,27,4,60,?9?9?9?9,-18.1,-21.5,75,99610,9999,9999,9999,0,0,0,999999,999999,999999,9999,315,0.78,8,8,9999,99999,9,999999999,999,0.999,0.0,99,0.2,0.0,0
2026,2,27,5,60,?9?9?9?9,-17.8,-21.2,74,99650,9999,9999,9999,0,0,0,999999,999999,999999,9999,321,0.32,10,10,9999,99999,9,999999999,999,0.999,0.0,99,0.2,0.0,0
2026,2,27,6,60,?9?9?9?9,-17.5,-21.4,72,99640,9999,9999,9999,0,0,0,999999,999999,999999,9999,342,0.16,3,3,9999,99999,9,999999999,999,0.999,0.0,99,0.2,0.0,0
2026,2,27,7,60,?9?9?9?9,-18.2,-21.9,73,99660,9999,9999,9999,0,0,0,999999,999999,999999,9999,18,0.32,10,10,9999,99999,9,999999999,999,0.999,0.0,99,0.2,0.0,0
2026,2,27,8,60,?9?9?9?9,-17.0,-19.8,79,99710,9999,9999,9999,5,0,5,999999,999999,999999,9999,360,0.15,10,10,9999,99999,9,999999999,999,0.999,0.0,99,0.2,0.0,0
2026,2,27,9,60,?9?9?9?9,-15.1,-19.0,72,99780,9999,9999,9999,97,274,57,999999,999999,999999,9999,63,0.22,10,10,9999,99999,9,999999999,999,0.999,0.0,99,0.2,0.0,0
2026,2,27,10,60,?9?9?9?9,-12.3,-17.0,68,99820,9999,9999,9999,231,329,132,999999,999999,999999,9999,145,0.97,9,9,9999,99999,9,999999999,999,0.999,0.0,99,0.2,0.0,0
2026,2,27,11,60,?9?9?9?9,-10.4,-15.4,67,99810,9999,9999,9999,409,605,150,999999,999999,999999,9999,147,1.55,9,9,9999,99999,9,999999999,999,0.999,0.0,99,0.2,0.0,0
2026,2,27,12,60,?9?9?9?9,-8.6,-13.8,67,99820,9999,9999,9999,534,737,151,999999,999999,999999,9999,161,2.17,10,10,9999,99999,9,999999999,999,0.999,0.0,99,0.2,0.0,0
2026,2,27,13,60,?9?9?9?9,-7.4,-12.1,69,99780,9999,9999,9999,507,447,253,999999,999999,999999,9999,170,2.49,10,10,9999,99999,9,999999999,999,0.999,0.0,99,0.2,0.0,0
2026,2,27,14,60,?9?9?9?9,-6.8,-11.3,71,99750,9999,9999,9999,340,52,310,999999,999999,999999,9999,183,3.1,10,10,9999,99999,9,999999999,999,0.999,0.0,99,0.2,0.0,0
2026,2,27,15,60,?9?9?9?9,-6.1,-10.9,69,99740,9999,9999,9999,343,134,272,999999,999999,999999,9999,190,3.15,9,9,9999,99999,9,999999999,999,0.999,0.0,99,0.2,0.0,0
2026,2,27,16,60,?9?9?9?9,-5.1,-10.2,67,99700,9999,9999,9999,424,560,176,999999,999999,999999,9999,190,3.5,9,9,9999,99999,9,999999999,999,0.999,0.0,99,0.2,0.0,0
2026,2,27,17,60,?9?9?9?9,-5.3,-9.6,72,99680,9999,9999,9999,184,138,140,999999,999999,999999,9999,184,2.4,10,10,9999,99999,9,999999999,999,0.999,0.0,99,0.2,0.0,0
2026,2,27,18,60,?9?9?9?9,-5.9,-9.6,75,99650,9999,9999,9999,112,208,77,999999,999999,999999,9999,185,1.71,10,10,9999,99999,9,999999999,999,0.999,0.0,99,0.2,0.0,0
2026,2,27,19,60,?9?9?9?9,-8.4,-10.9,82,99670,9999,9999,9999,9,17,8,999999,999999,999999,9999,183,1.65,1,1,9999,99999,9,999999999,999,0.999,0.0,99,0.2,0.0,0
2026,2,27,20,60,?9?9?9?9,-6.8,-9.8,79,99700,9999,9999,9999,0,0,0,999999,999999,999999,9999,207,2.35,1,1,9999,99999,9,999999999,999,0.999,0.0,99,0.2,0.0,0
2026,2,27,21,60,?9?9?9?9,-8.6,-11.4,80,99700,9999,9999,9999,0,0,0,999999,999999,999999,9999,208,2.55,3,3,9999,99999,9,999999999,999,0.999,0.0,99,0.2,0.0,0
2026,2,27,22,60,?9?9?9?9,-9.2,-11.9,80,99680,9999,9999,9999,0,0,0,999999,999999,999999,9999,199,2.01,8,8,9999,99999,9,999999999,999,0.999,0.0,99,0.2,0.0,0
2026,2,27,23,60,?9?9?9?9,-9.8,-12.4,81,99590,9999,9999,9999,0,0,0,999999,999999,999999,9999,200,1.01,1,1,9999,99999,9,999999999,999,0.999,0.0,99,0.2,0.0,0
2026,2,27,24,60,?9?9?9?9,-10.6,-13.0,83,99540,9999,9999,9999,0,0,0,999999,999999,999999,9999,184,1.5,3,3,9999,99999,9,999999999,999,0.999,0.0,99,0.2,0.0,0
2026,2,28,1,60,?9?9?9?9,-11.1,-13.2,84,99460,9999,9999,9999,0,0,0,999999,999999,999999,9999,139,1.52,1,1,9999,99999,9,999999999,999,0.999,0.0,99,0.2,0.0,0
2026,2,28,2,60,?9?9?9?9,-11.8,-14.8,78,99390,9999,9999,9999,0,0,0,999999,999999,999999,9999,110,1.6,3,3,9999,99999,9,999999999,999,0.999,0.0,99,0.2,0.0,0
2026,2,28,3,60,?9?9?9?9,-11.7,-14.6,79,99270,9999,9999,9999,0,0,0,999999,999999,999999,9999,119,2.24,10,10,9999,99999,9,999999999,999,0.999,0.0,99,0.2,0.0,0
2026,2,28,4,60,?9?9?9?9,-9.1,-12.4,77,99150,9999,9999,9999,0,0,0,999999,999999,999999,9999,133,2.19,7,7,9999,99999,9,999999999,999,0.999,0.0,99,0.2,0.0,0
2026,2,28,5,60,?9?9?9?9,-8.1,-11.2,78,98960,9999,9999,9999,0,0,0,999999,999999,999999,9999,145,3.34,10,10,9999,99999,9,999999999,999,0.999,0.0,99,0.2,0.0,0
2026,2,28,6,60,?9?9?9?9,-5.6,-8.6,79,98840,9999,9999,9999,0,0,0,999999,999999,999999,9999,173,4.23,10,10,9999,99999,9,999999999,999,0.999,0.0,99,0.2,0.0,0
2026,2,28,7,60,?9?9?9?9,-1.5,-5.7,74,98750,9999,9999,9999,0,0,0,999999,999999,999999,9999,191,5.66,10,10,9999,99999,9,999999999,999,0.999,0.0,99,0.2,0.0,0
2026,2,28,8,60,?9?9?9?9,-0.8,-4.9,73,98770,9999,9999,9999,2,0,2,999999,999999,999999,9999,203,6.01,10,10,9999,99999,9,999999999,999,0.999,0.0,99,0.2,0.0,0
2026,2,28,9,60,?9?9?9?9,0.4,-3.0,78,98770,9999,9999,9999,29,0,29,999999,999999,999999,9999,199,6.18,10,10,9999,99999,9,999999999,999,0.999,0.002,99,0.2,0.3,1
2026,2,28,10,60,?9?9?9?9,0.9,-1.5,84,98770,9999,9999,9999,81,0,81,999999,999999,999999,9999,202,6.13,10,10,9999,99999,9,999999999,999,0.999,0.003,99,0.2,0.5,1
2026,2,28,11,60,?9?9?9?9,1.6,-0.6,85,98750,9999,9999,9999,112,2,111,999999,999999,999999,9999,202,6.59,10,10,9999,99999,9,999999999,999,0.999,0.001,99,0.2,0.2,1
2026,2,28,12,60,?9?9?9?9,2.1,-0.3,84,98770,9999,9999,9999,112,0,112,999999,999999,999999,9999,201,6.6,10,10,9999,99999,9,999999999,999,0.999,0.0,99,0.2,0.1,1
2026,2,28,13,60,?9?9?9?9,3.5,0.2,79,98760,9999,9999,9999,333,94,279,999999,999999,999999,9999,195,5.7,10,10,9999,99999,9,999999999,999,0.999,0.0,99,0.2,0.0,0
2026,2,28,14,60,?9?9?9?9,3.6,0.5,80,98810,9999,9999,9999,506,442,251,999999,999999,999999,9999,198,5.53,10,10,9999,99999,9,999999999,999,0.999,0.0,99,0.2,0.0,0
2026,2,28,15,60,?9?9?9?9,4.8,0.5,74,98900,9999,9999,9999,429,335,250,999999,999999,999999,9999,202,4.09,10,10,9999,99999,9,999999999,999,0.999,0.0,99,0.2,0.1,1
2026,2,28,16,60,?9?9?9?9,6.2,-2.3,55,99000,9999,9999,9999,405,498,182,999999,999999,999999,9999,254,2.55,10,10,9999,99999,9,999999999,999,0.999,0.0,99,0.2,0.0,0
2026,2,28,17,60,?9?9?9?9,0.9,-5.9,60,99250,9999,9999,9999,269,398,140,999999,999999,999999,9999,312,6.2,7,7,9999,99999,9,999999999,999,0.999,0.0,99,0.2,0.0,0
2026,2,28,18,60,?9?9?9?9,-0.3,-7.0,61,99410,9999,9999,9999,137,476,55,999999,999999,999999,9999,311,6.13,10,10,9999,99999,9,999999999,999,0.999,0.0,99,0.2,0.0,0
2026,2,28,19,60,?9?9?9?9,-2.4,-8.7,62,99630,9999,9999,9999,13,80,8,999999,999999,999999,9999,307,5.64,6,6,9999,99999,9,999999999,999,0.999,0.0,99,0.2,0.0,0
2026,2,28,20,60,?9?9?9?9,-4.4,-10.2,64,99840,9999,9999,9999,0,0,0,999999,999999,999999,9999,329,5.02,4,4,9999,99999,9,999999999,999,0.999,0.0,99,0.2,0.0,0
2026,2,28,21,60,?9?9?9?9,-6.7,-12.8,62,100030,9999,9999,9999,0,0,0,999999,999999,999999,9999,335,5.62,5,5,9999,99999,9,999999999,999,0.999,0.0,99,0.2,0.0,0
2026,2,28,22,60,?9?9?9?9,-8.7,-13.9,66,100090,9999,9999,9999,0,0,0,999999,999999,999999,9999,340,5.52,9,9,9999,99999,9,999999999,999,0.999,0.0,99,0.2,0.0,0
2026,2,28,23,60,?9?9?9?9,-10.0,-14.9,67,100120,9999,9999,9999,0,0,0,999999,999999,999999,9999,342,6.61,10,10,9999,99999,9,999999999,999,0.999,0.0,99,0.2,0.0,0
2026,2,28,24,60,?9?9?9?9,-11.4,-16.5,66,100080,9999,9999,9999,0,0,0,999999,999999,999999,9999,347,7.07,10,10,9999,99999,9,999999999,999,0.999,0.0,99,0.2,0.0,0
2026,3,1,1,60,?9?9?9?9,-12.3,-17.4,66,100160,9999,9999,9999,0,0,0,999999,999999,999999,9999,354,4.43,9,9,9999,99999,9,999999999,999,0.999,0.0,99,0.2,0.0,0
2026,3,1,2,60,?9?9?9?9,-12.8,-18.0,65,100330,9999,9999,9999,0,0,0,999999,999999,999999,9999,348,3.37,10,10,9999,99999,9,999999999,999,0.999,0.0,99,0.2,0.0,0
2026,3,1,3,60,?9?9?9?9,-12.9,-18.1,65,100340,9999,9999,9999,0,0,0,999999,999999,999999,9999,345,3.78,10,10,9999,99999,9,999999999,999,0.999,0.0,99,0.2,0.0,0
2026,3,1,4,60,?9?9?9?9,-13.7,-18.4,68,100420,9999,9999,9999,0,0,0,999999,999999,999999,9999,345,3.31,10,10,9999,99999,9,999999999,999,0.999,0.0,99,0.2,0.0,0
2026,3,1,5,60,?9?9?9?9,-14.4,-18.9,69,100500,9999,9999,9999,0,0,0,999999,999999,999999,9999,351,3.19,10,10,9999,99999,9,999999999,999,0.999,0.0,99,0.2,0.0,0
2026,3,1,6,60,?9?9?9?9,-15.3,-20.0,67,100530,9999,9999,9999,0,0,0,999999,999999,999999,9999,351,3.49,8,8,9999,99999,9,999999999,999,0.999,0.0,99,0.2,0.0,0
2026,3,1,7,60,?9?9?9?9,-16.8,-21.4,67,100630,9999,9999,9999,0,0,0,999999,999999,999999,9999,345,3.37,0,0,9999,99999,9,999999999,999,0.999,0.0,99,0.2,0.0,0
2026,3,1,8,60,?9?9?9?9,-17.4,-22.3,65,100740,9999,9999,9999,9,74,5,999999,999999,999999,9999,339,3.75,0,0,9999,99999,9,999999999,999,0.999,0.0,99,0.2,0.0,0
2026,3,1,9,60,?9?9?9?9,-17.1,-23.5,58,100830,9999,9999,9999,132,562,44,999999,999999,999999,9999,343,4.18,0,0,9999,99999,9,999999999,999,0.999,0.0,99,0.2,0.0,0
2026,3,1,10,60,?9?9?9?9,-16.9,-24.0,54,100880,9999,9999,9999,314,776,72,999999,999999,999999,9999,344,4.21,0,0,9999,99999,9,999999999,999,0.999,0.0,99,0.2,0.0,0
2026,3,1,11,60,?9?9?9?9,-16.2,-24.2,50,100890,9999,9999,9999,475,881,88,999999,999999,999999,9999,341,4.13,0,0,9999,99999,9,999999999,999,0.999,0.0,99,0.2,0.0,0
2026,3,1,12,60,?9?9?9?9,-15.3,-24.4,46,100910,9999,9999,9999,594,935,98,999999,999999,999999,9999,338,3.95,0,0,9999,99999,9,999999999,999,0.999,0.0,99,0.2,0.0,0
2026,3,1,13,60,?9?9?9?9,-14.4,-24.5,42,100920,9999,9999,9999,659,960,103,999999,999999,999999,9999,333,3.87,0,0,9999,99999,9,999999999,999,0.999,0.0,99,0.2,0.0,0
2026,3,1,14,60,?9?9?9?9,-12.9,-24.3,38,100860,9999,9999,9999,662,962,102,999999,999999,999999,9999,327,3.9,0,0,9999,99999,9,999999999,999,0.999,0.0,99,0.2,0.0,0
2026,3,1,15,60,?9?9?9?9,-12.4,-24.2,37,100860,9999,9999,9999,605,943,97,999999,999999,999999,9999,322,3.81,0,0,9999,99999,9,999999999,999,0.999,0.0,99,0.2,0.0,0
2026,3,1,16,60,?9?9?9?9,-11.4,-24.1,34,100850,9999,9999,9999,490,880,92,999999,999999,999999,9999,309,4.58,1,1,9999,99999,9,999999999,999,0.999,0.0,99,0.2,0.0,0
2026,3,1,17,60,?9?9?9?9,-12.2,-24.2,36,100920,9999,9999,9999,332,775,77,999999,999999,999999,9999,318,3.79,0,0,9999,99999,9,999999999,999,0.999,0.0,99,0.2,0.0,0
2026,3,1,18,60,?9?9?9?9,-13.4,-23.0,44,100990,9999,9999,9999,154,605,47,999999,999999,999999,9999,323,2.75,0,0,9999,99999,9,999999999,999,0.999,0.0,99,0.2,0.0,0
2026,3,1,19,60,?9?9?9?9,-15.9,-22.2,58,101100,9999,9999,9999,16,124,8,999999,999999,999999,9999,323,2.43,0,0,9999,99999,9,999999999,999,0.999,0.0,99,0.2,0.0,0
2026,3,1,20,60,?9?9?9?9,-16.8,-23.0,58,101200,9999,9999,9999,0,0,0,999999,999999,999999,9999,322,3.31,0,0,9999,99999,9,999999999,999,0.999,0.0,99,0.2,0.0,0
2026,3,1,21,60,?9?9?9?9,-17.7,-23.2,62,101260,9999,9999,9999,0,0,0,999999,999999,999999,9999,323,2.75,0,0,9999,99999,9,999999999,999,0.999,0.0,99,0.2,0.0,0
2026,3,1,22,60,?9?9?9?9,-18.8,-23.6,66,101330,9999,9999,9999,0,0,0,999999,999999,999999,9999,321,2.84,0,0,9999,99999,9,999999999,999,0.999,0.0,99,0.2,0.0,0
2026,3,1,23,60,?9?9?9?9,-19.6,-24.2,67,101360,9999,9999,9999,0,0,0,999999,999999,999999,9999,317,2.72,0,0,9999,99999,9,999999999,999,0.999,0.0,99,0.2,0.0,0
2026,3,1,24,60,?9?9?9?9,-20.3,-24.8,68,101380,9999,9999,9999,0,0,0,999999,999999,999999,9999,317,2.69,0,0,9999,99999,9,999999999,999,0.999,0.0,99,0.2,0.0,0
2026,3,2,1,60,?9?9?9?9,-21.0,-25.4,68,101430,9999,9999,9999,0,0,0,999999,999999,999999,9999,317,2.41,0,0,9999,99999,9,999999999,999,0.999,0.0,99,0.2,0.0,0
2026,3,2,2,60,?9?9?9?9,-21.3,-26.1,65,101490,9999,9999,9999,0,0,0,999999,999999,999999,9999,319,2.38,0,0,9999,99999,9,999999999,999,0.999,0.0,99,0.2,0.0,0
2026,3,2,3,60,?9?9?9?9,-22.2,-26.8,66,101530,9999,9999,9999,0,0,0,999999,999999,999999,9999,322,2.03,0,0,9999,99999,9,999999999,999,0.999,0.0,99,0.2,0.0,0
2026,3,2,4,60,?9?9?9?9,-23.5,-27.8,68,101530,9999,9999,9999,0,0,0,999999,999999,999999,9999,315,1.77,0,0,9999,99999,9,999999999,999,0.999,0.0,99,0.2,0.0,0
2026,3,2,5,60,?9?9?9?9,-24.2,-28.2,69,101570,9999,9999,9999,0,0,0,999999,999999,999999,9999,264,0.96,0,0,9999,99999,9,999999999,999,0.999,0.0,99,0.2,0.0,0
2026,3,2,6,60,?9?9?9?9,-25.1,-28.9,71,101600,9999,9999,9999,0,0,0,999999,999999,999999,9999,261,1.52,0,0,9999,99999,9,999999999,999,0.999,0.0,99,0.2,0.0,0
2026,3,2,7,60,?9?9?9?9,-25.6,-29.4,71,101620,9999,9999,9999,0,0,0,999999,999999,999999,9999,284,1.49,0,0,9999,99999,9,999999999,999,0.999,0.0,99,0.2,0.0,0
2026,3,2,8,60,?9?9?9?9,-25.0,-29.3,67,101680,9999,9999,9999,10,88,5,999999,999999,999999,9999,296,1.95,0,0,9999,99999,9,999999999,999,0.999,0.0,99,0.2,0.0,0
2026,3,2,9,60,?9?9?9?9,-21.0,-27.4,57,101740,9999,9999,9999,136,562,45,999999,999999,999999,9999,288,1.42,0,0,9999,99999,9,999999999,999,0.999,0.0,99,0.2,0.0,0
2026,3,2,10,60,?9?9?9?9,-16.9,-25.8,46,101780,9999,9999,9999,317,769,73,999999,999999,999999,9999,248,0.81,0,0,9999,99999,9,999999999,999,0.999,0.0,99,0.2,0.0,0
2026,3,2,11,60,?9?9?9?9,-14.1,-24.3,42,101760,9999,9999,9999,477,870,90,999999,999999,999999,9999,194,2.11,5,5,9999,99999,9,999999999,999,0.999,0.0,99,0.2,0.0,0
2026,3,2,12,60,?9?9?9?9,-12.8,-22.7,43,101740,9999,9999,9999,590,896,110,999999,999999,999999,9999,192,3.07,6,6,9999,99999,9,999999999,999,0.999,0.0,99,0.2,0.0,0
2026,3,2,13,60,?9?9?9?9,-11.4,-21.0,45,101680,9999,9999,9999,648,891,127,999999,999999,999999,9999,205,3.38,0,0,9999,99999,9,999999999,999,0.999,0.0,99,0.2,0.0,0
2026,3,2,14,60,?9?9?9?9,-9.9,-19.4,46,101550,9999,9999,9999,658,937,108,999999,999999,999999,9999,205,4.63,3,3,9999,99999,9,999999999,999,0.999,0.0,99,0.2,0.0,0
2026,3,2,15,60,?9?9?9?9,-8.8,-19.1,43,101480,9999,9999,9999,602,925,99,999999,999999,999999,9999,213,4.7,5,5,9999,99999,9,999999999,999,0.999,0.0,99,0.2,0.0,0
2026,3,2,16,60,?9?9?9?9,-8.5,-18.8,43,101420,9999,9999,9999,489,870,91,999999,999999,999999,9999,207,4.61,0,0,9999,99999,9,999999999,999,0.999,0.0,99,0.2,0.0,0
2026,3,2,17,60,?9?9?9?9,-9.6,-17.4,53,101390,9999,9999,9999,335,782,74,999999,999999,999999,9999,196,4.59,0,0,9999,99999,9,999999999,999,0.999,0.0,99,0.2,0.0,0
2026,3,2,18,60,?9?9?9?9,-11.1,-17.1,61,101390,9999,9999,9999,156,596,48,999999,999999,999999,9999,201,4.45,0,0,9999,99999,9,999999999,999,0.999,0.0,99,0.2,0.0,0
2026,3,2,19,60,?9?9?9?9,-12.8,-17.5,68,101400,9999,9999,9999,17,135,8,999999,999999,999999,9999,213,3.87,0,0,9999,99999,9,999999999,999,0.999,0.0,99,0.2,0.0,0
2026,3,2,20,60,?9?9?9?9,-13.8,-18.8,66,101420,9999,9999,9999,0,0,0,999999,999999,999999,9999,224,3.71,0,0,9999,99999,9,999999999,999,0.999,0.0,99,0.2,0.0,0
2026,3,2,21,60,?9?9?9?9,-14.1,-18.9,67,101420,9999,9999,9999,0,0,0,999999,999999,999999,9999,229,3.19,1,1,9999,99999,9,999999999,999,0.999,0.0,99,0.2,0.0,0
2026,3,2,22,60,?9?9?9?9,-14.8,-19.3,69,101430,9999,9999,9999,0,0,0,999999,999999,999999,9999,233,2.93,8,8,9999,99999,9,999999999,999,0.999,0.0,99,0.2,0.0,0
2026,3,2,23,60,?9?9?9?9,-14.8,-19.3,69,101400,9999,9999,9999,0,0,0,999999,999999,999999,9999,225,2.62,10,10,9999,99999,9,999999999,999,0.999,0.0,99,0.2,0.0,0
2026,3,2,24,60,?9?9?9?9,-14.2,-18.9,68,101340,9999,9999,9999,0,0,0,999999,999999,999999,9999,218,2.53,10,10,9999,99999,9,999999999,999,0.999,0.0,99,0.2,0.0,0
2026,3,3,1,60,?9?9?9?9,-13.8,-18.4,68,101330,9999,9999,9999,0,0,0,999999,999999,999999,9999,198,3.15,10,10,9999,99999,9,999999999,999,0.999,0.0,99,0.2,0.0,0
2026,3,3,2,60,?9?9?9?9,-14.1,-19.5,64,101280,9999,9999,9999,0,0,0,999999,999999,999999,9999,205,3.15,10,10,9999,99999,9,999999999,999,0.999,0.0,99,0.2,0.0,0
2026,3,3,3,60,?9?9?9?9,-13.9,-19.8,61,101260,9999,9999,9999,0,0,0,999999,999999,999999,9999,207,2.8,10,10,9999,99999,9,999999999,999,0.999,0.0,99,0.2,0.0,0
2026,3,3,4,60,?9?9?9?9,-13.1,-20.0,56,101160,9999,9999,9999,0,0,0,999999,999999,999999,9999,200,3.24,7,7,9999,99999,9,999999999,999,0.999,0.0,99,0.2,0.0,0
2026,3,3,5,60,?9?9?9?9,-14.4,-20.5,60,101110,9999,9999,9999,0,0,0,999999,999999,999999,9999,200,3.15,6,6,9999,99999,9,999999999,999,0.999,0.0,99,0.2,0.0,0
2026,3,3,6,60,?9?9?9?9,-15.5,-20.8,64,101090,9999,9999,9999,0,0,0,999999,999999,999999,9999,201,3.1,6,6,9999,99999,9,999999999,999,0.999,0.0,99,0.2,0.0,0
2026,3,3,7,60,?9?9?9?9,-15.9,-20.8,66,101070,9999,9999,9999,0,0,0,999999,999999,999999,9999,203,3.25,7,7,9999,99999,9,999999999,999,0.999,0.0,99,0.2,0.0,0
2026,3,3,8,60,?9?9?9?9,-14.4,-19.7,64,101060,9999,9999,9999,10,51,7,999999,999999,999999,9999,206,3.18,9,9,9999,99999,9,999999999,999,0.999,0.0,99,0.2,0.0,0
2026,3,3,9,60,?9?9?9?9,-12.2,-18.4,60,101110,9999,9999,9999,129,436,56,999999,999999,999999,9999,193,2.46,10,10,9999,99999,9,999999999,999,0.999,0.0,99,0.2,0.0,0
2026,3,3,10,60,?9?9?9?9,-9.5,-17.0,55,101050,9999,9999,9999,301,660,88,999999,999999,999999,9999,194,2.93,10,10,9999,99999,9,999999999,999,0.999,0.0,99,0.2,0.0,0
2026,3,3,11,60,?9?9?9?9,-7.2,-15.1,53,101030,9999,9999,9999,441,679,135,999999,999999,999999,9999,188,3.03,10,10,9999,99999,9,999999999,999,0.999,0.0,99,0.2,0.0,0
2026,3,3,12,60,?9?9?9?9,-5.9,-13.8,54,100970,9999,9999,9999,527,596,204,999999,999999,999999,9999,186,3.62,7,7,9999,99999,9,999999999,999,0.999,0.0,99,0.2,0.0,0
2026,3,3,13,60,?9?9?9?9,-4.7,-12.8,53,100890,9999,9999,9999,625,829,136,999999,999999,999999,9999,190,4.12,7,7,9999,99999,9,999999999,999,0.999,0.0,99,0.2,0.0,0
2026,3,3,14,60,?9?9?9?9,-3.1,-11.8,51,100760,9999,9999,9999,627,827,137,999999,999999,999999,9999,193,4.21,10,10,9999,99999,9,999999999,999,0.999,0.0,99,0.2,0.0,0
2026,3,3,15,60,?9?9?9?9,-2.2,-10.5,53,100690,9999,9999,9999,516,497,243,999999,999999,999999,9999,191,3.78,10,10,9999,99999,9,999999999,999,0.999,0.0,99,0.2,0.0,0
2026,3,3,16,60,?9?9?9?9,-1.6,-9.8,54,100610,9999,9999,9999,394,381,218,999999,999999,999999,9999,194,3.66,10,10,9999,99999,9,999999999,999,0.999,0.0,99,0.2,0.0,0
2026,3,3,17,60,?9?9?9?9,-1.8,-9.1,57,100540,9999,9999,9999,262,266,172,999999,999999,999999,9999,196,3.17,10,10,9999,99999,9,999999999,999,0.999,0.0,99,0.2,0.0,0
2026,3,3,18,60,?9?9?9?9,-2.5,-9.0,61,100470,9999,9999,9999,107,86,91,999999,999999,999999,9999,204,3.29,10,10,9999,99999,9,999999999,999,0.999,0.0,99,0.2,0.0,0
2026,3,3,19,60,?9?9?9?9,-4.0,-8.6,70,100380,9999,9999,9999,13,0,13,999999,999999,999999,9999,207,3.09,10,10,9999,99999,9,999999999,999,0.999,0.0,99,0.2,0.0,0
2026,3,3,20,60,?9?9?9?9,-4.3,-8.6,72,100270,9999,9999,9999,0,0,0,999999,999999,999999,9999,211,3.1,10,10,9999,99999,9,999999999,999,0.999,0.0,99,0.2,0.0,0
2026,3,3,21,60,?9?9?9?9,-4.2,-7.8,75,100210,9999,9999,9999,0,0,0,999999,999999,999999,9999,221,2.87,10,10,9999,99999,9,999999999,999,0.999,0.0,99,0.2,0.0,0
2026,3,3,22,60,?9?9?9?9,-3.8,-7.2,77,100180,9999,9999,9999,0,0,0,999999,999999,999999,9999,232,2.67,10,10,9999,99999,9,999999999,999,0.999,0.0,99,0.2,0.0,0
2026,3,3,23,60,?9?9?9?9,-4.2,-7.2,79,100120,9999,9999,9999,0,0,0,999999,999999,999999,9999,211,2.4,10,10,9999,99999,9,999999999,999,0.999,0.0,99,0.2,0.0,0
2026,3,3,24,60,?9?9?9?9,-4.1,-6.9,81,100070,9999,9999,9999,0,0,0,999999,999999,999999,9999,213,2.27,10,10,9999,99999,9,999999999,999,0.999,0.0,99,0.2,0.0,0
2026,3,4,1,60,?9?9?9?9,-3.9,-6.7,81,100030,9999,9999,9999,0,0,0,999999,999999,999999,9999,213,2.14,10,10,9999,99999,9,999999999,999,0.999,0.0,99,0.2,0.0,0
2026,3,4,2,60,?9?9?9?9,-3.5,-6.3,81,100030,9999,9999,9999,0,0,0,999999,999999,999999,9999,218,2.67,7,7,9999,99999,9,999999999,999,0.999,0.0,99,0.2,0.0,0
2026,3,4,3,60,?9?9?9?9,-4.9,-7.2,84,99960,9999,9999,9999,0,0,0,999999,999999,999999,9999,214,2.66,3,3,9999,99999,9,999999999,999,0.999,0.0,99,0.2,0.0,0
2026,3,4,4,60,?9?9?9?9,-5.4,-7.7,84,99900,9999,9999,9999,0,0,0,999999,999999,999999,9999,226,2.79,1,1,9999,99999,9,999999999,999,0.999,0.0,99,0.2,0.0,0
2026,3,4,5,60,?9?9?9?9,-6.1,-8.3,84,99900,9999,9999,9999,0,0,0,999999,999999,999999,9999,242,2.66,0,0,9999,99999,9,999999999,999,0.999,0.0,99,0.2,0.0,0
2026,3,4,6,60,?9?9?9?9,-5.9,-8.4,83,99940,9999,9999,9999,0,0,0,999999,999999,999999,9999,256,3.09,3,3,9999,99999,9,999999999,999,0.999,0.0,99,0.2,0.0,0
2026,3,4,7,60,?9?9?9?9,-5.3,-8.1,80,99980,9999,9999,9999,0,0,0,999999,999999,999999,9999,256,3.14,10,10,9999,99999,9,999999999,999,0.999,0.0,99,0.2,0.0,0
2026,3,4,8,60,?9?9?9?9,-1.9,-5.8,74,100040,9999,9999,9999,6,0,6,999999,999999,999999,9999,239,3.43,2,2,9999,99999,9,999999999,999,0.999,0.0,99,0.2,0.0,0
2026,3,4,9,60,?9?9?9?9,-0.1,-4.9,70,100130,9999,9999,9999,125,370,61,999999,999999,999999,9999,226,3.32,4,4,9999,99999,9,999999999,999,0.999,0.0,99,0.2,0.0,0
2026,3,4,10,60,?9?9?9?9,2.2,-3.8,65,100220,9999,9999,9999,308,691,81,999999,999999,999999,9999,226,3.43,9,9,9999,99999,9,999999999,999,0.999,0.0,99,0.2,0.0,0
2026,3,4,11,60,?9?9?9?9,3.3,-3.7,60,100150,9999,9999,9999,423,612,144,999999,999999,999999,9999,221,3.58,10,10,9999,99999,9,999999999,999,0.999,0.0,99,0.2,0.0,0
2026,3,4,12,60,?9?9?9?9,4.8,-3.5,55,100120,9999,9999,9999,451,252,313,999999,999999,999999,9999,246,3.62,10,10,9999,99999,9,999999999,999,0.999,0.0,99,0.2,0.0,0
2026,3,4,13,60,?9?9?9?9,5.9,-3.5,51,100040,9999,9999,9999,550,474,268,999999,999999,999999,9999,248,2.58,8,8,9999,99999,9,999999999,999,0.999,0.0,99,0.2,0.0,0
2026,3,4,14,60,?9?9?9?9,5.4,-2.5,57,99940,9999,9999,9999,560,550,231,999999,999999,999999,9999,218,2.92,10,10,9999,99999,9,999999999,999,0.999,0.0,99,0.2,0.0,0
2026,3,4,15,60,?9?9?9?9,5.9,-2.1,56,99950,9999,9999,9999,515,538,217,999999,999999,999999,9999,219,2.63,10,10,9999,99999,9,999999999,999,0.999,0.0,99,0.2,0.0,0
2026,3,4,16,60,?9?9?9?9,5.7,-1.8,59,99960,9999,9999,9999,394,405,205,999999,999999,999999,9999,209,2.87,10,10,9999,99999,9,999999999,999,0.999,0.0,99,0.2,0.0,0
2026,3,4,17,60,?9?9?9?9,4.8,-1.1,66,99990,9999,9999,9999,289,472,127,999999,999999,999999,9999,199,2.17,3,3,9999,99999,9,999999999,999,0.999,0.0,99,0.2,0.0,0
2026,3,4,18,60,?9?9?9?9,2.8,-1.5,74,100040,9999,9999,9999,137,421,57,999999,999999,999999,9999,230,1.31,5,5,9999,99999,9,999999999,999,0.999,0.0,99,0.2,0.0,0
2026,3,4,19,60,?9?9?9?9,1.1,-2.6,76,100110,9999,9999,9999,17,84,11,999999,999999,999999,9999,298,2.04,10,10,9999,99999,9,999999999,999,0.999,0.0,99,0.2,0.0,0
2026,3,4,20,60,?9?9?9?9,2.0,-2.0,75,100170,9999,9999,9999,0,0,0,999999,999999,999999,9999,316,3.39,9,9,9999,99999,9,999999999,999,0.999,0.0,99,0.2,0.0,0
2026,3,4,21,60,?9?9?9?9,1.7,-2.1,76,100220,9999,9999,9999,0,0,0,999999,999999,999999,9999,336,3.89,8,8,9999,99999,9,999999999,999,0.999,0.0,99,0.2,0.0,0
2026,3,4,22,60,?9?9?9?9,0.8,-2.7,78,100340,9999,9999,9999,0,0,0,999999,999999,999999,9999,346,4.64,10,10,9999,99999,9,999999999,999,0.999,0.0,99,0.2,0.0,0
2026,3,4,23,60,?9?9?9?9,-1.5,-5.4,74,100460,9999,9999,9999,0,0,0,999999,999999,999999,9999,0,5.85,10,10,9999,99999,9,999999999,999,0.999,0.0,99,0.2,0.0,0
2026,3,4,24,60,?9?9?9?9,-3.9,-8.0,73,100550,9999,9999,9999,0,0,0,999999,999999,999999,9999,1,5.7,10,10,9999,99999,9,999999999,999,0.999,0.0,99,0.2,0.0,0
2026,3,5,1,60,?9?9?9?9,-5.4,-9.5,73,100600,9999,9999,9999,0,0,0,999999,999999,999999,9999,359,5.75,10,10,9999,99999,9,999999999,999,0.999,0.0,99,0.2,0.0,0
2026,3,5,2,60,?9?9?9?9,-5.6,-10.4,69,100640,9999,9999,9999,0,0,0,999999,999999,999999,9999,2,5.55,10,10,9999,99999,9,999999999,999,0.999,0.0,99,0.2,0.0,0
2026,3,5,3,60,?9?9?9?9,-6.5,-10.8,72,100760,9999,9999,9999,0,0,0,999999,999999,999999,9999,13,4.52,10,10,9999,99999,9,999999999,999,0.999,0.0,99,0.2,0.0,0
2026,3,5,4,60,?9?9?9?9,-7.8,-11.9,72,100850,9999,9999,9999,0,0,0,999999,999999,999999,9999,25,5.57,10,10,9999,99999,9,999999999,999,0.999,0.0,99,0.2,0.0,0
2026,3,5,5,60,?9?9?9?9,-10.1,-14.6,70,101010,9999,9999,9999,0,0,0,999999,999999,999999,9999,19,5.44,10,10,9999,99999,9,999999999,999,0.999,0.0,99,0.2,0.0,0
2026,3,5,6,60,?9?9?9?9,-11.0,-15.4,70,101150,9999,9999,9999,0,0,0,999999,999999,999999,9999,16,4.94,10,10,9999,99999,9,999999999,999,0.999,0.0,99,0.2,0.0,0
2026,3,5,7,60,?9?9?9?9,-11.8,-16.5,68,101240,9999,9999,9999,0,0,0,999999,999999,999999,9999,13,5.02,10,10,9999,99999,9,999999999,999,0.999,0.001,99,0.2,0.1,1
2026,3,5,8,60,?9?9?9?9,-12.1,-17.4,65,101300,9999,9999,9999,3,0,3,999999,999999,999999,9999,6,5.28,10,10,9999,99999,9,999999999,999,0.999,0.001,99,0.2,0.2,1
2026,3,5,9,60,?9?9?9?9,-12.8,-18.0,65,101400,9999,9999,9999,31,0,31,999999,999999,999999,9999,7,4.99,10,10,9999,99999,9,999999999,999,0.999,0.001,99,0.2,0.1,1
2026,3,5,10,60,?9?9?9?9,-13.2,-18.3,66,101490,9999,9999,9999,70,3,69,999999,999999,999999,9999,9,4.56,10,10,9999,99999,9,999999999,999,0.999,0.001,99,0.2,0.1,1
2026,3,5,11,60,?9?9?9?9,-12.4,-18.4,61,101490,9999,9999,9999,216,26,204,999999,999999,999999,9999,5,4.36,10,10,9999,99999,9,999999999,999,0.999,0.001,99,0.2,0.1,1
2026,3,5,12,60,?9?9?9?9,-11.8,-18.5,58,101520,9999,9999,9999,252,22,240,999999,999999,999999,9999,16,3.74,10,10,9999,99999,9,999999999,999,0.999,0.0,99,0.2,0.0,0
2026,3,5,13,60,?9?9?9?9,-10.6,-17.6,56,101530,9999,9999,9999,328,20,316,999999,999999,999999,9999,37,3.32,10,10,9999,99999,9,999999999,999,0.999,0.0,99,0.2,0.0,0
2026,3,5,14,60,?9?9?9?9,-9.2,-17.7,50,101460,9999,9999,9999,454,148,365,999999,999999,999999,9999,40,3.05,8,8,9999,99999,9,999999999,999,0.999,0.0,99,0.2,0.0,0
2026,3,5,15,60,?9?9?9?9,-8.1,-16.1,52,101390,9999,9999,9999,524,549,217,999999,999999,999999,9999,60,2.93,0,0,9999,99999,9,999999999,999,0.999,0.0,99,0.2,0.0,0
2026,3,5,16,60,?9?9?9?9,-7.8,-15.0,56,101390,9999,9999,9999,486,818,100,999999,999999,999999,9999,72,2.94,0,0,9999,99999,9,999999999,999,0.999,0.0,99,0.2,0.0,0
2026,3,5,17,60,?9?9?9?9,-8.1,-14.9,58,101390,9999,9999,9999,333,731,79,999999,999999,999999,9999,68,3.07,0,0,9999,99999,9,999999999,999,0.999,0.0,99,0.2,0.0,0
2026,3,5,18,60,?9?9?9?9,-9.1,-14.8,63,101360,9999,9999,9999,161,555,53,999999,999999,999999,9999,57,2.97,0,0,9999,99999,9,999999999,999,0.999,0.0,99,0.2,0.0,0
2026,3,5,19,60,?9?9?9?9,-10.6,-15.2,69,101370,9999,9999,9999,22,150,11,999999,999999,999999,9999,55,3.19,0,0,9999,99999,9,999999999,999,0.999,0.0,99,0.2,0.0,0
2026,3,5,20,60,?9?9?9?9,-11.1,-16.6,64,101390,9999,9999,9999,0,0,0,999999,999999,999999,9999,68,3.45,0,0,9999,99999,9,999999999,999,0.999,0.0,99,0.2,0.0,0
2026,3,5,21,60,?9?9?9?9,-11.1,-17.1,61,101400,9999,9999,9999,0,0,0,999999,999999,999999,9999,58,3.59,0,0,9999,99999,9,999999999,999,0.999,0.0,99,0.2,0.0,0
2026,3,5,22,60,?9?9?9?9,-11.7,-17.4,63,101370,9999,9999,9999,0,0,0,999999,999999,999999,9999,48,3.75,1,1,9999,99999,9,999999999,999,0.999,0.0,99,0.2,0.0,0
2026,3,5,23,60,?9?9?9?9,-12.1,-17.5,64,101360,9999,9999,9999,0,0,0,999999,999999,999999,9999,42,3.89,8,8,9999,99999,9,999999999,999,0.999,0.0,99,0.2,0.0,0
2026,3,5,24,60,?9?9?9?9,-12.1,-17.6,64,101350,9999,9999,9999,0,0,0,999999,999999,999999,9999,43,3.89,2,2,9999,99999,9,999999999,999,0.999,0.0,99,0.2,0.0,0
2026,3,6,1,60,?9?9?9?9,-12.2,-17.9,63,101310,9999,9999,9999,0,0,0,999999,999999,999999,9999,47,3.89,2,2,9999,99999,9,999999999,999,0.999,0.0,99,0.2,0.0,0
2026,3,6,2,60,?9?9?9?9,-11.9,-18.9,56,101290,9999,9999,9999,0,0,0,999999,999999,999999,9999,43,3.93,8,8,9999,99999,9,999999999,999,0.999,0.0,99,0.2,0.0,0
2026,3,6,3,60,?9?9?9?9,-11.9,-18.6,57,101290,9999,9999,9999,0,0,0,999999,999999,999999,9999,42,3.65,3,3,9999,99999,9,999999999,999,0.999,0.0,99,0.2,0.0,0
2026,3,6,4,60,?9?9?9?9,-12.1,-18.5,59,101280,9999,9999,9999,0,0,0,999999,999999,999999,9999,42,3.58,1,1,9999,99999,9,999999999,999,0.999,0.0,99,0.2,0.0,0
2026,3,6,5,60,?9?9?9?9,-12.2,-18.4,60,101290,9999,9999,9999,0,0,0,999999,999999,999999,9999,42,3.58,2,2,9999,99999,9,999999999,999,0.999,0.0,99,0.2,0.0,0
2026,3,6,6,60,?9?9?9?9,-12.4,-18.0,63,101290,9999,9999,9999,0,0,0,999999,999999,999999,9999,46,3.39,9,9,9999,99999,9,999999999,999,0.999,0.0,99,0.2,0.0,0
2026,3,6,7,60,?9?9?9?9,-12.6,-17.8,66,101280,9999,9999,9999,0,0,0,999999,999999,999999,9999,52,3.42,10,10,9999,99999,9,999999999,999,0.999,0.0,99,0.2,0.0,0
2026,3,6,8,60,?9?9?9?9,-11.9,-17.5,63,101290,9999,9999,9999,15,59,11,999999,999999,999999,9999,54,3.4,9,9,9999,99999,9,999999999,999,0.999,0.0,99,0.2,0.0,0
2026,3,6,9,60,?9?9?9?9,-10.1,-16.5,60,101320,9999,9999,9999,145,488,55,999999,999999,999999,9999,52,2.42,8,8,9999,99999,9,999999999,999,0.999,0.0,99,0.2,0.0,0
2026,3,6,10,60,?9?9?9?9,-8.3,-15.5,56,101370,9999,9999,9999,320,709,79,999999,999999,999999,9999,55,2.44,10,10,9999,99999,9,999999999,999,0.999,0.0,99,0.2,0.0,0
2026,3,6,11,60,?9?9?9?9,-6.4,-14.2,54,101330,9999,9999,9999,469,775,107,999999,999999,999999,9999,67,2.51,10,10,9999,99999,9,999999999,999,0.999,0.0,99,0.2,0.0,0
2026,3,6,12,60,?9?9?9?9,-4.4,-12.8,52,101280,9999,9999,9999,578,805,129,999999,999999,999999,9999,72,2.31,10,10,9999,99999,9,999999999,999,0.999,0.0,99,0.2,0.0,0
2026,3,6,13,60,?9?9?9?9,-2.5,-11.4,51,101220,9999,9999,9999,622,736,176,999999,999999,999999,9999,85,2.11,10,10,9999,99999,9,999999999,999,0.999,0.0,99,0.2,0.0,0
2026,3,6,14,60,?9?9?9?9,-1.5,-10.9,49,101130,9999,9999,9999,622,724,182,999999,999999,999999,9999,97,2.02,10,10,9999,99999,9,999999999,999,0.999,0.0,99,0.2,0.0,0
2026,3,6,15,60,?9?9?9?9,-0.4,-9.6,50,101030,9999,9999,9999,575,741,157,999999,999999,999999,9999,101,2.09,10,10,9999,99999,9,999999999,999,0.999,0.0,99,0.2,0.0,0
2026,3,6,16,60,?9?9?9?9,-0.1,-8.6,52,101010,9999,9999,9999,467,692,137,999999,999999,999999,9999,113,2.06,10,10,9999,99999,9,999999999,999,0.999,0.0,99,0.2,0.0,0
2026,3,6,17,60,?9?9?9?9,-0.3,-7.8,57,100950,9999,9999,9999,297,440,142,999999,999999,999999,9999,104,1.65,10,10,9999,99999,9,999999999,999,0.999,0.0,99,0.2,0.0,0
2026,3,6,18,60,?9?9?9?9,-1.6,-6.9,67,100880,9999,9999,9999,126,186,89,999999,999999,999999,9999,83,1.26,10,10,9999,99999,9,999999999,999,0.999,0.0,99,0.2,0.0,0
2026,3,6,19,60,?9?9?9?9,-4.1,-7.2,78,100860,9999,9999,9999,19,40,16,999999,999999,999999,9999,65,1.92,10,10,9999,99999,9,999999999,999,0.999,0.0,99,0.2,0.0,0
2026,3,6,20,60,?9?9?9?9,-4.7,-8.1,77,100840,9999,9999,9999,0,0,0,999999,999999,999999,9999,76,2.32,10,10,9999,99999,9,999999999,999,0.999,0.0,99,0.2,0.0,0
2026,3,6,21,60,?9?9?9?9,-4.3,-7.6,78,100760,9999,9999,9999,0,0,0,999999,999999,999999,9999,74,2.66,10,10,9999,99999,9,999999999,999,0.999,0.0,99,0.2,0.0,0
2026,3,6,22,60,?9?9?9?9,-4.2,-7.2,80,100700,9999,9999,9999,0,0,0,999999,999999,999999,9999,73,2.36,10,10,9999,99999,9,999999999,999,0.999,0.0,99,0.2,0.0,0
2026,3,6,23,60,?9?9?9?9,-3.7,-6.5,81,100590,9999,9999,9999,0,0,0,999999,999999,999999,9999,98,2.12,10,10,9999,99999,9,999999999,999,0.999,0.0,99,0.2,0.0,0
2026,3,6,24,60,?9?9?9?9,-4.9,-6.6,88,100440,9999,9999,9999,0,0,0,999999,999999,999999,9999,97,1.92,10,10,9999,99999,9,999999999,999,0.999,0.0,99,0.2,0.0,0
2026,3,7,1,60,?9?9?9?9,-3.8,-5.2,90,100370,9999,9999,9999,0,0,0,999999,999999,999999,9999,122,1.53,10,10,9999,99999,9,999999999,999,0.999,0.0,99,0.2,0.0,0
2026,3,7,2,60,?9?9?9?9,-2.7,-4.9,85,100210,9999,9999,9999,0,0,0,999999,999999,999999,9999,124,2.3,10,10,9999,99999,9,999999999,999,0.999,0.0,99,0.2,0.0,0
2026,3,7,3,60,?9?9?9?9,-1.1,-3.2,86,100120,9999,9999,9999,0,0,0,999999,999999,999999,9999,133,2.44,10,10,9999,99999,9,999999999,999,0.999,0.0,99,0.2,0.0,0
2026,3,7,4,60,?9?9?9?9,0.2,-1.5,88,99970,9999,9999,9999,0,0,0,999999,999999,999999,9999,145,2.94,10,10,9999,99999,9,999999999,999,0.999,0.0,99,0.2,0.4,1
2026,3,7,5,60,?9?9?9?9,0.8,-0.6,91,99800,9999,9999,9999,0,0,0,999999,999999,999999,9999,143,3.36,10,10,9999,99999,9,999999999,999,0.999,0.0,99,0.2,1.0,1
2026,3,7,6,60,?9?9?9?9,0.9,-0.3,92,99620,9999,9999,9999,0,0,0,999999,999999,999999,9999,147,3.47,10,10,9999,99999,9,999999999,999,0.999,0.0,99,0.2,3.7,1
2026,3,7,7,60,?9?9?9?9,1.0,0.1,93,99600,9999,9999,9999,0,0,0,999999,999999,999999,9999,161,2.48,10,10,9999,99999,9,999999999,999,0.999,0.0,99,0.2,2.8,1
2026,3,7,8,60,?9?9?9?9,0.4,0.0,97,99410,9999,9999,9999,2,0,2,999999,999999,999999,9999,138,2.9,10,10,9999,99999,9,999999999,999,0.999,0.0,99,0.2,1.9,1
2026,3,7,9,60,?9?9?9?9,1.7,0.9,94,99370,9999,9999,9999,15,0,15,999999,999999,999999,9999,184,3.86,10,10,9999,99999,9,999999999,999,0.999,0.0,99,0.2,0.2,1
2026,3,7,10,60,?9?9?9?9,2.2,1.1,93,99270,9999,9999,9999,54,0,54,999999,999999,999999,9999,195,4.86,10,10,9999,99999,9,999999999,999,0.999,0.0,99,0.2,0.3,1
2026,3,7,11,60,?9?9?9?9,2.5,1.1,91,99170,9999,9999,9999,100,0,100,999999,999999,999999,9999,197,4.7,10,10,9999,99999,9,999999999,999,0.999,0.0,99,0.2,0.1,1
2026,3,7,12,60,?9?9?9?9,2.9,1.5,90,99060,9999,9999,9999,130,2,129,999999,999999,999999,9999,199,4.85,10,10,9999,99999,9,999999999,999,0.999,0.0,99,0.2,0.0,0
2026,3,7,13,60,?9?9?9?9,3.8,1.9,87,98950,9999,9999,9999,195,16,185,999999,999999,999999,9999,202,5.43,10,10,9999,99999,9,999999999,999,0.999,0.0,99,0.2,0.0,0
2026,3,7,14,60,?9?9?9?9,2.7,1.8,93,98800,9999,9999,9999,176,11,169,999999,999999,999999,9999,198,4.57,10,10,9999,99999,9,999999999,999,0.999,0.0,99,0.2,0.0,0
2026,3,7,15,60,?9?9?9?9,3.7,2.0,89,98630,9999,9999,9999,146,2,145,999999,999999,999999,9999,202,4.58,10,10,9999,99999,9,999999999,999,0.999,0.0,99,0.2,0.1,1
2026,3,7,16,60,?9?9?9?9,3.9,2.2,88,98490,9999,9999,9999,118,2,117,999999,999999,999999,9999,201,4.49,10,10,9999,99999,9,999999999,999,0.999,0.0,99,0.2,0.0,0
2026,3,7,17,60,?9?9?9?9,4.2,2.2,87,98330,9999,9999,9999,94,0,94,999999,999999,999999,9999,205,4.59,10,10,9999,99999,9,999999999,999,0.999,0.0,99,0.2,0.0,0
2026,3,7,18,60,?9?9?9?9,4.2,2.4,88,98260,9999,9999,9999,42,0,42,999999,999999,999999,9999,208,4.7,10,10,9999,99999,9,999999999,999,0.999,0.0,99,0.2,0.2,1
2026,3,7,19,60,?9?9?9?9,4.0,2.4,89,98150,9999,9999,9999,9,0,9,999999,999999,999999,9999,205,4.59,10,10,9999,99999,9,999999999,999,0.999,0.0,99,0.2,0.8,1
2026,3,7,20,60,?9?9?9?9,2.8,2.1,95,98060,9999,9999,9999,0,0,0,999999,999999,999999,9999,213,4.12,10,10,9999,99999,9,999999999,999,0.999,0.0,99,0.2,0.6,1
2026,3,7,21,60,?9?9?9?9,3.2,2.3,94,97970,9999,9999,9999,0,0,0,999999,999999,999999,9999,209,3.89,10,10,9999,99999,9,999999999,999,0.999,0.0,99,0.2,0.5,1
2026,3,7,22,60,?9?9?9?9,3.5,2.6,94,97920,9999,9999,9999,0,0,0,999999,999999,999999,9999,201,4.11,10,10,9999,99999,9,999999999,999,0.999,0.0,99,0.2,1.2,1
2026,3,7,23,60,?9?9?9?9,3.7,3.2,97,97860,9999,9999,9999,0,0,0,999999,999999,999999,9999,202,5.12,10,10,9999,99999,9,999999999,999,0.999,0.0,99,0.2,0.0,0
2026,3,7,24,60,?9?9?9?9,4.8,4.7,99,97820,9999,9999,9999,0,0,0,999999,999999,999999,9999,209,5.01,10,10,9999,99999,9,999999999,999,0.999,0.0,99,0.2,0.0,0
2026,3,8,1,60,?9?9?9?9,5.6,5.6,100,97790,9999,9999,9999,0,0,0,999999,999999,999999,9999,209,5.01,10,10,9999,99999,9,999999999,999,0.999,0.0,99,0.2,0.0,0
2026,3,8,2,60,?9?9?9?9,4.4,4.3,100,97790,9999,9999,9999,0,0,0,999999,999999,999999,9999,212,4.58,10,10,9999,99999,9,999999999,999,0.999,0.0,99,0.2,0.0,0
2026,3,8,3,60,?9?9?9?9,4.9,4.8,99,97770,9999,9999,9999,0,0,0,999999,999999,999999,9999,217,4.11,10,10,9999,99999,9,999999999,999,0.999,0.0,99,0.2,0.0,0
2026,3,8,4,60,?9?9?9?9,4.7,4.7,100,97720,9999,9999,9999,0,0,0,999999,999999,999999,9999,209,4.63,10,10,9999,99999,9,999999999,999,0.999,0.0,99,0.2,0.0,0
2026,3,8,5,60,?9?9?9?9,4.7,4.6,99,97750,9999,9999,9999,0,0,0,999999,999999,999999,9999,237,3.44,10,10,9999,99999,9,999999999,999,0.999,0.0,99,0.2,0.0,0
2026,3,8,6,60,?9?9?9?9,4.0,3.9,99,97780,9999,9999,9999,0,0,0,999999,999999,999999,9999,231,2.2,10,10,9999,99999,9,999999999,999,0.999,0.0,99,0.2,0.0,0
2026,3,8,7,60,?9?9?9?9,3.3,3.0,98,97870,9999,9999,9999,0,0,0,999999,999999,999999,9999,313,2.69,10,10,9999,99999,9,999999999,999,0.999,0.0,99,0.2,0.1,1
2026,3,8,8,60,?9?9?9?9,2.7,1.2,90,97920,9999,9999,9999,7,14,6,999999,999999,999999,9999,341,2.86,10,10,9999,99999,9,999999999,999,0.999,0.0,99,0.2,0.3,1
2026,3,8,9,60,?9?9?9?9,3.0,0.6,85,98130,9999,9999,9999,38,15,35,999999,999999,999999,9999,332,4.32,10,10,9999,99999,9,999999999,999,0.999,0.0,99,0.2,0.0,0
2026,3,8,10,60,?9?9?9?9,2.9,0.1,82,98230,9999,9999,9999,79,0,79,999999,999999,999999,9999,332,3.0,10,10,9999,99999,9,999999999,999,0.999,0.0,99,0.2,0.0,0
2026,3,8,11,60,?9?9?9?9,3.8,-0.4,74,98300,9999,9999,9999,206,23,195,999999,999999,999999,9999,308,2.42,10,10,9999,99999,9,999999999,999,0.999,0.0,99,0.2,0.0,0
2026,3,8,12,60,?9?9?9?9,4.7,-0.7,68,98350,9999,9999,9999,316,76,273,999999,999999,999999,9999,292,2.04,10,10,9999,99999,9,999999999,999,0.999,0.0,99,0.2,0.0,0
2026,3,8,13,60,?9?9?9?9,5.8,0.2,68,98380,9999,9999,9999,376,114,306,999999,999999,999999,9999,251,3.61,10,10,9999,99999,9,999999999,999,0.999,0.0,99,0.2,0.0,0
2026,3,8,14,60,?9?9?9?9,5.2,0.6,72,98350,9999,9999,9999,255,45,227,999999,999999,999999,9999,234,2.65,10,10,9999,99999,9,999999999,999,0.999,0.0,99,0.2,0.0,0
2026,3,8,15,60,?9?9?9?9,5.8,-0.4,64,98390,9999,9999,9999,269,45,243,999999,999999,999999,9999,228,4.07,10,10,9999,99999,9,999999999,999,0.999,0.0,99,0.2,0.0,0
2026,3,8,16,60,?9?9?9?9,5.0,0.3,72,98420,9999,9999,9999,229,29,215,999999,999999,999999,9999,209,4.3,10,10,9999,99999,9,999999999,999,0.999,0.0,99,0.2,0.0,0
2026,3,8,17,60,?9?9?9?9,4.2,0.8,79,98390,9999,9999,9999,134,17,128,999999,999999,999999,9999,205,4.59,10,10,9999,99999,9,999999999,999,0.999,0.0,99,0.2,0.0,0
2026,3,8,18,60,?9?9?9?9,3.2,0.6,83,98430,9999,9999,9999,109,96,89,999999,999999,999999,9999,212,6.49,10,10,9999,99999,9,999999999,999,0.999,0.0,99,0.2,0.0,0
2026,3,8,19,60,?9?9?9?9,2.2,0.1,86,98510,9999,9999,9999,17,50,13,999999,999999,999999,9999,213,6.44,10,10,9999,99999,9,999999999,999,0.999,0.0,99,0.2,0.1,1
2026,3,8,20,60,?9?9?9?9,2.3,0.0,85,98520,9999,9999,9999,0,0,0,999999,999999,999999,9999,213,5.76,9,9,9999,99999,9,999999999,999,0.999,0.0,99,0.2,0.1,1
2026,3,8,21,60,?9?9?9?9,2.0,-0.4,84,98580,9999,9999,9999,0,0,0,999999,999999,999999,9999,220,5.18,5,5,9999,99999,9,999999999,999,0.999,0.0,99,0.2,0.0,0
2026,3,8,22,60,?9?9?9?9,1.8,-0.6,84,98640,9999,9999,9999,0,0,0,999999,999999,999999,9999,222,4.64,7,7,9999,99999,9,999999999,999,0.999,0.0,99,0.2,0.0,0
2026,3,8,23,60,?9?9?9?9,2.2,-0.4,83,98650,9999,9999,9999,0,0,0,999999,999999,999999,9999,228,4.85,10,10,9999,99999,9,999999999,999,0.999,0.0,99,0.2,0.0,0
2026,3,8,24,60,?9?9?9?9,3.0,0.1,81,98640,9999,9999,9999,0,0,0,999999,999999,999999,9999,224,4.49,4,4,9999,99999,9,999999999,999,0.999,0.0,99,0.2,0.0,0
2026,3,9,1,60,?9?9?9?9,1.6,-0.2,88,98680,9999,9999,9999,0,0,0,999999,999999,999999,9999,212,4.31,1,1,9999,99999,9,999999999,999,0.999,0.0,99,0.2,0.0,0
2026,3,9,2,60,?9?9?9?9,1.4,-0.2,89,98860,9999,9999,9999,0,0,0,999999,999999,999999,9999,220,4.12,6,6,9999,99999,9,999999999,999,0.999,0.0,99,0.2,0.0,0
2026,3,9,3,60,?9?9?9?9,1.4,-0.5,87,98870,9999,9999,9999,0,0,0,999999,999999,999999,9999,224,3.89,4,4,9999,99999,9,999999999,999,0.999,0.0,99,0.2,0.0,0
2026,3,9,4,60,?9?9?9?9,1.5,-0.5,86,98820,9999,9999,9999,0,0,0,999999,999999,999999,9999,230,3.59,2,2,9999,99999,9,999999999,999,0.999,0.0,99,0.2,0.0,0
2026,3,9,5,60,?9?9?9?9,0.8,-0.8,89,98820,9999,9999,9999,0,0,0,999999,999999,999999,9999,209,3.31,10,10,9999,99999,9,999999999,999,0.999,0.0,99,0.2,0.0,0
2026,3,9,6,60,?9?9?9?9,0.3,-0.6,93,98890,9999,9999,9999,0,0,0,999999,999999,999999,9999,190,4.06,10,10,9999,99999,9,999999999,999,0.999,0.0,99,0.2,0.0,0
2026,3,9,7,60,?9?9?9?9,0.6,-0.4,93,98930,9999,9999,9999,0,0,0,999999,999999,999999,9999,200,4.21,10,10,9999,99999,9,999999999,999,0.999,0.0,99,0.2,0.0,0
2026,3,9,8,60,?9?9?9?9,1.5,0.2,91,98920,9999,9999,9999,14,26,12,999999,999999,999999,9999,205,4.52,10,10,9999,99999,9,999999999,999,0.999,0.0,99,0.2,0.0,0
2026,3,9,9,60,?9?9?9?9,2.2,0.2,87,98940,9999,9999,9999,29,10,27,999999,999999,999999,9999,203,3.85,10,10,9999,99999,9,999999999,999,0.999,0.0,99,0.2,0.1,1
2026,3,9,10,60,?9?9?9?9,3.2,0.3,81,98860,9999,9999,9999,183,171,122,999999,999999,999999,9999,184,3.71,10,10,9999,99999,9,999999999,999,0.999,0.0,99,0.2,0.1,1
2026,3,9,11,60,?9?9?9?9,4.5,0.6,76,98800,9999,9999,9999,262,78,224,999999,999999,999999,9999,186,3.62,9,9,9999,99999,9,999999999,999,0.999,0.0,99,0.2,0.0,0
2026,3,9,12,60,?9?9?9?9,6.4,0.9,68,98720,9999,9999,9999,536,621,179,999999,999999,999999,9999,193,4.98,10,10,9999,99999,9,999999999,999,0.999,0.0,99,0.2,0.0,0
2026,3,9,13,60,?9?9?9?9,7.8,1.1,62,98650,9999,9999,9999,585,596,214,999999,999999,999999,9999,197,5.28,10,10,9999,99999,9,999999999,999,0.999,0.0,99,0.2,0.0,0
2026,3,9,14,60,?9?9?9?9,8.6,1.7,62,98540,9999,9999,9999,583,584,219,999999,999999,999999,9999,201,5.95,9,9,9999,99999,9,999999999,999,0.999,0.0,99,0.2,0.0,0
2026,3,9,15,60,?9?9?9?9,10.2,1.1,53,98500,9999,9999,9999,580,796,119,999999,999999,999999,9999,210,7.06,1,1,9999,99999,9,999999999,999,0.999,0.0,99,0.2,0.0,0
2026,3,9,16,60,?9?9?9?9,10.4,1.1,52,98480,9999,9999,9999,484,778,102,999999,999999,999999,9999,213,7.81,0,0,9999,99999,9,999999999,999,0.999,0.0,99,0.2,0.0,0
2026,3,9,17,60,?9?9?9?9,9.9,0.9,54,98440,9999,9999,9999,342,730,75,999999,999999,999999,9999,218,7.87,0,0,9999,99999,9,999999999,999,0.999,0.0,99,0.2,0.0,0
2026,3,9,18,60,?9?9?9?9,8.9,0.8,56,98470,9999,9999,9999,174,575,52,999999,999999,999999,9999,218,7.47,0,0,9999,99999,9,999999999,999,0.999,0.0,99,0.2,0.0,0
2026,3,9,19,60,?9?9?9?9,7.9,0.6,60,98540,9999,9999,9999,29,194,13,999999,999999,999999,9999,220,6.85,0,0,9999,99999,9,999999999,999,0.999,0.0,99,0.2,0.0,0
2026,3,9,20,60,?9?9?9?9,7.6,1.0,63,98540,9999,9999,9999,0,0,0,999999,999999,999999,9999,223,6.86,0,0,9999,99999,9,999999999,999,0.999,0.0,99,0.2,0.0,0
2026,3,9,21,60,?9?9?9?9,7.6,0.6,61,98610,9999,9999,9999,0,0,0,999999,999999,999999,9999,223,6.26,1,1,9999,99999,9,999999999,999,0.999,0.0,99,0.2,0.0,0
2026,3,9,22,60,?9?9?9?9,6.7,0.8,66,98710,9999,9999,9999,0,0,0,999999,999999,999999,9999,227,5.45,4,4,9999,99999,9,999999999,999,0.999,0.0,99,0.2,0.0,0
2026,3,9,23,60,?9?9?9?9,6.3,0.8,68,98800,9999,9999,9999,0,0,0,999999,999999,999999,9999,232,4.52,2,2,9999,99999,9,999999999,999,0.999,0.0,99,0.2,0.0,0
2026,3,9,24,60,?9?9?9?9,5.2,0.7,73,98880,9999,9999,9999,0,0,0,999999,999999,999999,9999,227,3.08,6,6,9999,99999,9,999999999,999,0.999,0.0,99,0.2,0.0,0
2026,3,10,1,60,?9?9?9?9,4.1,0.6,78,99060,9999,9999,9999,0,0,0,999999,999999,999999,9999,244,2.28,0,0,9999,99999,9,999999999,999,0.999,0.0,99,0.2,0.0,0
2026,3,10,2,60,?9?9?9?9,4.4,0.3,74,99090,9999,9999,9999,0,0,0,999999,999999,999999,9999,293,2.87,8,8,9999,99999,9,999999999,999,0.999,0.0,99,0.2,0.0,0
2026,3,10,3,60,?9?9?9?9,4.0,0.5,78,99180,9999,9999,9999,0,0,0,999999,999999,999999,9999,320,2.48,7,7,9999,99999,9,999999999,999,0.999,0.0,99,0.2,0.0,0
2026,3,10,4,60,?9?9?9?9,2.7,0.2,84,99290,9999,9999,9999,0,0,0,999999,999999,999999,9999,327,3.04,7,7,9999,99999,9,999999999,999,0.999,0.0,99,0.2,0.0,0
2026,3,10,5,60,?9?9?9?9,2.2,0.0,86,99420,9999,9999,9999,0,0,0,999999,999999,999999,9999,353,3.83,4,4,9999,99999,9,999999999,999,0.999,0.0,99,0.2,0.0,0
2026,3,10,6,60,?9?9?9?9,1.1,-1.6,82,99540,9999,9999,9999,0,0,0,999999,999999,999999,9999,360,4.05,8,8,9999,99999,9,999999999,999,0.999,0.0,99,0.2,0.0,0
2026,3,10,7,60,?9?9?9?9,0.2,-2.4,83,99590,9999,9999,9999,0,0,0,999999,999999,999999,9999,2,3.3,10,10,9999,99999,9,999999999,999,0.999,0.0,99,0.2,0.0,0
2026,3,10,8,60,?9?9?9?9,0.5,-2.5,81,99560,9999,9999,9999,12,25,10,999999,999999,999999,9999,357,2.6,3,3,9999,99999,9,999999999,999,0.999,0.0,99,0.2,0.0,0
2026,3,10,9,60,?9?9?9?9,2.0,-1.6,77,99600,9999,9999,9999,164,506,59,999999,999999,999999,9999,349,2.9,9,9,9999,99999,9,999999999,999,0.999,0.0,99,0.2,0.0,0
2026,3,10,10,60,?9?9?9?9,3.2,-2.4,67,99590,9999,9999,9999,219,215,141,999999,999999,999999,9999,355,2.86,10,10,9999,99999,9,999999999,999,0.999,0.0,99,0.2,0.0,0
2026,3,10,11,60,?9?9?9?9,3.8,-2.6,63,99610,9999,9999,9999,246,20,236,999999,999999,999999,9999,355,2.76,10,10,9999,99999,9,999999999,999,0.999,0.0,99,0.2,0.0,0
2026,3,10,12,60,?9?9?9?9,4.2,-2.7,61,99620,9999,9999,9999,339,245,197,999999,999999,999999,9999,355,3.36,10,10,9999,99999,9,999999999,999,0.999,0.0,99,0.2,0.0,0
2026,3,10,13,60,?9?9?9?9,3.9,-2.8,61,99610,9999,9999,9999,300,89,244,999999,999999,999999,9999,2,3.0,10,10,9999,99999,9,999999999,999,0.999,0.0,99,0.2,0.0,0
2026,3,10,14,60,?9?9?9?9,4.0,-2.9,61,99590,9999,9999,9999,325,113,254,999999,999999,999999,9999,2,3.35,10,10,9999,99999,9,999999999,999,0.999,0.0,99,0.2,0.0,0
2026,3,10,15,60,?9?9?9?9,3.1,-2.8,65,99650,9999,9999,9999,172,15,163,999999,999999,999999,9999,2,3.6,10,10,9999,99999,9,999999999,999,0.999,0.0,99,0.2,0.0,0
2026,3,10,16,60,?9?9?9?9,2.5,-2.7,68,99740,9999,9999,9999,112,2,111,999999,999999,999999,9999,2,3.4,10,10,9999,99999,9,999999999,999,0.999,0.0,99,0.2,0.1,1
2026,3,10,17,60,?9?9?9?9,2.5,-2.8,68,99800,9999,9999,9999,94,16,88,999999,999999,999999,9999,2,3.9,10,10,9999,99999,9,999999999,999,0.999,0.0,99,0.2,0.0,0
2026,3,10,18,60,?9?9?9?9,1.9,-3.3,68,99910,9999,9999,9999,42,0,42,999999,999999,999999,9999,360,4.5,10,10,9999,99999,9,999999999,999,0.999,0.0,99,0.2,0.0,0
2026,3,10,19,60,?9?9?9?9,0.6,-4.1,71,100010,9999,9999,9999,16,59,11,999999,999999,999999,9999,2,4.9,2,2,9999,99999,9,999999999,999,0.999,0.0,99,0.2,0.0,0
2026,3,10,20,60,?9?9?9?9,0.1,-4.3,72,100180,9999,9999,9999,0,0,0,999999,999999,999999,9999,359,5.5,10,10,9999,99999,9,999999999,999,0.999,0.0,99,0.2,0.0,0
2026,3,10,21,60,?9?9?9?9,-1.2,-5.1,75,100300,9999,9999,9999,0,0,0,999999,999999,999999,9999,5,5.47,10,10,9999,99999,9,999999999,999,0.999,0.0,99,0.2,0.0,0
2026,3,10,22,60,?9?9?9?9,-2.5,-6.3,75,100400,9999,9999,9999,0,0,0,999999,999999,999999,9999,4,5.46,10,10,9999,99999,9,999999999,999,0.999,0.0,99,0.2,0.0,0
2026,3,10,23,60,?9?9?9?9,-3.5,-7.5,74,100440,9999,9999,9999,0,0,0,999999,999999,999999,9999,4,5.97,10,10,9999,99999,9,999999999,999,0.999,0.0,99,0.2,0.0,0
2026,3,10,24,60,?9?9?9?9,-4.8,-8.0,78,100510,9999,9999,9999,0,0,0,999999,999999,999999,9999,5,6.28,10,10,9999,99999,9,999999999,999,0.999,0.001,99,0.2,0.1,1
2026,3,11,1,60,?9?9?9?9,-5.8,-9.0,78,100510,9999,9999,9999,0,0,0,999999,999999,999999,9999,10,5.43,10,10,9999,99999,9,999999999,999,0.999,0.001,99,0.2,0.2,1
2026,3,11,2,60,?9?9?9?9,-5.2,-9.9,69,100530,9999,9999,9999,0,0,0,999999,999999,999999,9999,13,5.43,10,10,9999,99999,9,999999999,999,0.999,0.0,99,0.2,0.0,0
2026,3,11,3,60,?9?9?9?9,-5.8,-10.6,69,100570,9999,9999,9999,0,0,0,999999,999999,999999,9999,8,5.51,10,10,9999,99999,9,999999999,999,0.999,0.0,99,0.2,0.0,0
2026,3,11,4,60,?9?9?9?9,-7.2,-11.6,71,100510,9999,9999,9999,0,0,0,999999,999999,999999,9999,14,5.46,10,10,9999,99999,9,999999999,999,0.999,0.0,99,0.2,0.0,0
2026,3,11,5,60,?9?9?9?9,-7.0,-11.4,71,100450,9999,9999,9999,0,0,0,999999,999999,999999,9999,15,4.92,10,10,9999,99999,9,999999999,999,0.999,0.0,99,0.2,0.0,0
2026,3,11,6,60,?9?9?9?9,-7.1,-11.1,73,100360,9999,9999,9999,0,0,0,999999,999999,999999,9999,25,4.54,10,10,9999,99999,9,999999999,999,0.999,0.0,99,0.2,0.0,0
2026,3,11,7,60,?9?9?9?9,-6.3,-9.8,77,100290,9999,9999,9999,0,0,0,999999,999999,999999,9999,33,4.09,10,10,9999,99999,9,999999999,999,0.999,0.0,99,0.2,0.0,0
2026,3,11,8,60,?9?9?9?9,-5.7,-8.9,78,100220,9999,9999,9999,5,0,5,999999,999999,999999,9999,55,5.42,10,10,9999,99999,9,999999999,999,0.999,0.0,99,0.2,0.0,0
2026,3,11,9,60,?9?9?9?9,-5.4,-9.1,75,100130,9999,9999,9999,25,0,25,999999,999999,999999,9999,48,5.56,10,10,9999,99999,9,999999999,999,0.999,0.0,99,0.2,0.8,1
2026,3,11,10,60,?9?9?9?9,-5.9,-9.4,77,100080,9999,9999,9999,41,0,41,999999,999999,999999,9999,41,6.35,10,10,9999,99999,9,999999999,999,0.999,0.004,99,0.2,0.8,1
2026,3,11,11,60,?9?9?9?9,-6.1,-9.4,77,99940,9999,9999,9999,83,0,83,999999,999999,999999,9999,51,7.07,10,10,9999,99999,9,999999999,999,0.999,0.004,99,0.2,1.9,1
2026,3,11,12,60,?9?9?9?9,-5.7,-9.2,76,99720,9999,9999,9999,94,0,94,999999,999999,999999,9999,62,6.82,10,10,9999,99999,9,999999999,999,0.999,0.0,99,0.2,1.1,1
2026,3,11,13,60,?9?9?9?9,-5.6,-8.8,78,99540,9999,9999,9999,130,2,129,999999,999999,999999,9999,68,7.43,10,10,9999,99999,9,999999999,999,0.999,0.0,99,0.2,1.8,1
2026,3,11,14,60,?9?9?9?9,-5.9,-8.4,82,99310,9999,9999,9999,85,0,85,999999,999999,999999,9999,72,8.14,10,10,9999,99999,9,999999999,999,0.999,0.0,99,0.2,2.6,1
2026,3,11,15,60,?9?9?9?9,-5.6,-7.6,86,99140,9999,9999,9999,106,0,106,999999,999999,999999,9999,72,7.35,10,10,9999,99999,9,999999999,999,0.999,0.0,99,0.2,1.8,1
2026,3,11,16,60,?9?9?9?9,-5.2,-7.2,86,98990,9999,9999,9999,81,0,81,999999,999999,999999,9999,64,6.8,10,10,9999,99999,9,999999999,999,0.999,0.0,99,0.2,1.9,1
2026,3,11,17,60,?9?9?9?9,-5.2,-6.9,87,98840,9999,9999,9999,31,0,31,999999,999999,999999,9999,70,6.82,10,10,9999,99999,9,999999999,999,0.999,0.0,99,0.2,3.9,1
2026,3,11,18,60,?9?9?9?9,-5.0,-6.7,88,98670,9999,9999,9999,27,0,27,999999,999999,999999,9999,70,6.77,10,10,9999,99999,9,999999999,999,0.999,0.0,99,0.2,2.4,1
2026,3,11,19,60,?9?9?9?9,-4.9,-6.3,90,98480,9999,9999,9999,3,0,3,999999,999999,999999,9999,76,7.11,10,10,9999,99999,9,999999999,999,0.999,0.0,99,0.2,3.4,1
2026,3,11,20,60,?9?9?9?9,-4.5,-5.8,90,98440,9999,9999,9999,0,0,0,999999,999999,999999,9999,72,5.53,10,10,9999,99999,9,999999999,999,0.999,0.0,99,0.2,3.1,1
2026,3,11,21,60,?9?9?9?9,-3.4,-5.2,87,98190,9999,9999,9999,0,0,0,999999,999999,999999,9999,93,8.51,10,10,9999,99999,9,999999999,999,0.999,0.0,99,0.2,3.8,1
2026,3,11,22,60,?9?9?9?9,-3.0,-4.8,87,98050,9999,9999,9999,0,0,0,999999,999999,999999,9999,95,7.88,10,10,9999,99999,9,999999999,999,0.999,0.0,99,0.2,2.1,1
2026,3,11,23,60,?9?9?9?9,-3.0,-4.7,88,98010,9999,9999,9999,0,0,0,999999,999999,999999,9999,85,6.32,10,10,9999,99999,9,999999999,999,0.999,0.0,99,0.2,0.3,1
2026,3,11,24,60,?9?9?9?9,-2.3,-3.8,90,97890,9999,9999,9999,0,0,0,999999,999999,999999,9999,91,5.65,10,10,9999,99999,9,999999999,999,0.999,0.0,99,0.2,0.4,1
2026,3,12,1,60,?9?9?9?9,-1.9,-3.0,93,97810,9999,9999,9999,0,0,0,999999,999999,999999,9999,90,3.9,10,10,9999,99999,9,999999999,999,0.999,0.0,99,0.2,0.2,1
2026,3,12,2,60,?9?9?9?9,-4.4,-5.1,95,97770,9999,9999,9999,0,0,0,999999,999999,999999,9999,65,2.75,10,10,9999,99999,9,999999999,999,0.999,0.0,99,0.2,0.2,1
2026,3,12,3,60,?9?9?9?9,-3.5,-4.3,95,97700,9999,9999,9999,0,0,0,999999,999999,999999,9999,88,2.65,10,10,9999,99999,9,999999999,999,0.999,0.0,99,0.2,0.2,1
2026,3,12,4,60,?9?9?9?9,-3.1,-3.8,95,97660,9999,9999,9999,0,0,0,999999,999999,999999,9999,103,1.84,10,10,9999,99999,9,999999999,999,0.999,0.0,99,0.2,0.3,1
2026,3,12,5,60,?9?9?9?9,-2.5,-3.2,95,97680,9999,9999,9999,0,0,0,999999,999999,999999,9999,177,1.0,10,10,9999,99999,9,999999999,999,0.999,0.0,99,0.2,0.1,1
2026,3,12,6,60,?9?9?9?9,-1.8,-2.5,95,97770,9999,9999,9999,0,0,0,999999,999999,999999,9999,178,2.5,10,10,9999,99999,9,999999999,999,0.999,0.0,99,0.2,0.0,0
2026,3,12,7,60,?9?9?9?9,-0.9,-1.5,95,97820,9999,9999,9999,0,0,0,999999,999999,999999,9999,215,4.02,10,10,9999,99999,9,999999999,999,0.999,0.0,99,0.2,0.0,0
2026,3,12,8,60,?9?9?9?9,-0.1,-0.7,95,98010,9999,9999,9999,16,0,16,999999,999999,999999,9999,212,4.31,10,10,9999,99999,9,999999999,999,0.999,0.0,99,0.2,0.0,0
2026,3,12,9,60,?9?9?9?9,0.7,-2.5,79,98070,9999,9999,9999,61,23,56,999999,999999,999999,9999,232,5.8,10,10,9999,99999,9,999999999,999,0.999,0.0,99,0.2,0.0,0
2026,3,12,10,60,?9?9?9?9,-0.6,-5.2,71,98250,9999,9999,9999,135,27,125,999999,999999,999999,9999,266,6.16,10,10,9999,99999,9,999999999,999,0.999,0.0,99,0.2,0.0,0
2026,3,12,11,60,?9?9?9?9,-3.2,-9.7,61,98440,9999,9999,9999,202,32,186,999999,999999,999999,9999,273,7.46,10,10,9999,99999,9,999999999,999,0.999,0.0,99,0.2,0.0,0
2026,3,12,12,60,?9?9?9?9,-4.7,-10.6,63,98590,9999,9999,9999,214,20,202,999999,999999,999999,9999,266,6.32,10,10,9999,99999,9,999999999,999,0.999,0.0,99,0.2,0.0,0
2026,3,12,13,60,?9?9?9?9,-4.9,-11.9,58,98600,9999,9999,9999,333,33,312,999999,999999,999999,9999,277,5.95,10,10,9999,99999,9,999999999,999,0.999,0.0,99,0.2,0.0,0
2026,3,12,14,60,?9?9?9?9,-4.8,-11.8,58,98670,9999,9999,9999,396,78,346,999999,999999,999999,9999,284,6.03,10,10,9999,99999,9,999999999,999,0.999,0.0,99,0.2,0.0,0
2026,3,12,15,60,?9?9?9?9,-5.0,-12.4,56,98740,9999,9999,9999,361,91,307,999999,999999,999999,9999,288,5.63,10,10,9999,99999,9,999999999,999,0.999,0.0,99,0.2,0.0,0
2026,3,12,16,60,?9?9?9?9,-5.2,-12.8,55,98790,9999,9999,9999,343,170,257,999999,999999,999999,9999,295,5.62,10,10,9999,99999,9,999999999,999,0.999,0.0,99,0.2,0.0,0
2026,3,12,17,60,?9?9?9?9,-5.7,-13.4,55,98850,9999,9999,9999,199,37,185,999999,999999,999999,9999,299,5.64,10,10,9999,99999,9,999999999,999,0.999,0.0,99,0.2,0.0,0
2026,3,12,18,60,?9?9?9?9,-6.0,-12.9,58,98870,9999,9999,9999,92,13,89,999999,999999,999999,9999,298,4.03,10,10,9999,99999,9,999999999,999,0.999,0.0,99,0.2,0.0,0
2026,3,12,19,60,?9?9?9?9,-6.8,-12.7,63,98980,9999,9999,9999,23,0,23,999999,999999,999999,9999,297,2.75,10,10,9999,99999,9,999999999,999,0.999,0.0,99,0.2,0.0,0
2026,3,12,20,60,?9?9?9?9,-6.4,-11.2,69,99170,9999,9999,9999,0,0,0,999999,999999,999999,9999,275,2.81,10,10,9999,99999,9,999999999,999,0.999,0.0,99,0.2,0.0,0
2026,3,12,21,60,?9?9?9?9,-7.6,-11.2,75,99240,9999,9999,9999,0,0,0,999999,999999,999999,9999,269,2.6,10,10,9999,99999,9,999999999,999,0.999,0.0,99,0.2,0.0,0
2026,3,12,22,60,?9?9?9?9,-8.4,-11.4,79,99330,9999,9999,9999,0,0,0,999999,999999,999999,9999,272,2.85,7,7,9999,99999,9,999999999,999,0.999,0.0,99,0.2,0.0,0
2026,3,12,23,60,?9?9?9?9,-8.7,-11.6,80,99360,9999,9999,9999,0,0,0,999999,999999,999999,9999,283,3.54,0,0,9999,99999,9,999999999,999,0.999,0.0,99,0.2,0.0,0
2026,3,12,24,60,?9?9?9?9,-9.0,-11.9,79,99350,9999,9999,9999,0,0,0,999999,999999,999999,9999,295,3.6,5,5,9999,99999,9,999999999,999,0.999,0.0,99,0.2,0.0,0
2026,3,13,1,60,?9?9?9?9,-9.2,-12.2,79,99350,9999,9999,9999,0,0,0,999999,999999,999999,9999,299,3.42,6,6,9999,99999,9,999999999,999,0.999,0.0,99,0.2,0.0,0
2026,3,13,2,60,?9?9?9?9,-8.6,-11.4,80,99390,9999,9999,9999,0,0,0,999999,999999,999999,9999,289,3.61,1,1,9999,99999,9,999999999,999,0.999,0.0,99,0.2,0.0,0
2026,3,13,3,60,?9?9?9?9,-9.1,-11.7,81,99400,9999,9999,9999,0,0,0,999999,999999,999999,9999,291,3.97,0,0,9999,99999,9,999999999,999,0.999,0.0,99,0.2,0.0,0
2026,3,13,4,60,?9?9?9?9,-9.8,-12.3,82,99440,9999,9999,9999,0,0,0,999999,999999,999999,9999,294,3.29,0,0,9999,99999,9,999999999,999,0.999,0.0,99,0.2,0.0,0
2026,3,13,5,60,?9?9?9?9,-11.5,-13.9,83,99480,9999,9999,9999,0,0,0,999999,999999,999999,9999,292,1.84,3,3,9999,99999,9,999999999,999,0.999,0.0,99,0.2,0.0,0
2026,3,13,6,60,?9?9?9?9,-13.1,-15.1,85,99560,9999,9999,9999,0,0,0,999999,999999,999999,9999,303,1.55,10,10,9999,99999,9,999999999,999,0.999,0.0,99,0.2,0.0,0
2026,3,13,7,60,?9?9?9?9,-12.6,-14.8,83,99620,9999,9999,9999,0,0,0,999999,999999,999999,9999,318,1.56,10,10,9999,99999,9,999999999,999,0.999,0.0,99,0.2,0.0,0
2026,3,13,8,60,?9?9?9?9,-10.1,-12.6,82,99660,9999,9999,9999,25,23,23,999999,999999,999999,9999,269,2.25,10,10,9999,99999,9,999999999,999,0.999,0.0,99,0.2,0.0,0
2026,3,13,9,60,?9?9?9?9,-8.8,-12.1,77,99690,9999,9999,9999,96,58,83,999999,999999,999999,9999,293,1.79,10,10,9999,99999,9,999999999,999,0.999,0.001,99,0.2,0.1,1
2026,3,13,10,60,?9?9?9?9,-7.7,-11.8,72,99720,9999,9999,9999,294,318,173,999999,999999,999999,9999,266,1.45,10,10,9999,99999,9,999999999,999,0.999,0.001,99,0.2,0.1,1
2026,3,13,11,60,?9?9?9?9,-6.4,-11.1,69,99680,9999,9999,9999,446,457,214,999999,999999,999999,9999,252,1.58,10,10,9999,99999,9,999999999,999,0.999,0.0,99,0.2,0.0,0
2026,3,13,12,60,?9?9?9?9,-5.2,-10.4,67,99630,9999,9999,9999,599,702,180,999999,999999,999999,9999,231,1.99,10,10,9999,99999,9,999999999,999,0.999,0.0,99,0.2,0.0,0
2026,3,13,13,60,?9?9?9?9,-4.2,-9.8,66,99570,9999,9999,9999,559,430,282,999999,999999,999999,9999,218,2.1,10,10,9999,99999,9,999999999,999,0.999,0.0,99,0.2,0.0,0
2026,3,13,14,60,?9?9?9?9,-4.2,-9.4,68,99510,9999,9999,9999,501,194,376,999999,999999,999999,9999,185,1.91,10,10,9999,99999,9,999999999,999,0.999,0.0,99,0.2,0.0,0
2026,3,13,15,60,?9?9?9?9,-3.7,-8.6,68,99450,9999,9999,9999,513,337,311,999999,999999,999999,9999,177,2.95,10,10,9999,99999,9,999999999,999,0.999,0.0,99,0.2,0.0,0
2026,3,13,16,60,?9?9?9?9,-3.8,-8.6,69,99410,9999,9999,9999,317,78,277,999999,999999,999999,9999,178,3.5,10,10,9999,99999,9,999999999,999,0.999,0.0,99,0.2,0.0,0
2026,3,13,17,60,?9?9?9?9,-3.8,-8.6,69,99350,9999,9999,9999,180,23,171,999999,999999,999999,9999,175,3.11,10,10,9999,99999,9,999999999,999,0.999,0.0,99,0.2,0.0,0
2026,3,13,18,60,?9?9?9?9,-4.0,-7.7,75,99350,9999,9999,9999,90,4,89,999999,999999,999999,9999,165,1.14,10,10,9999,99999,9,999999999,999,0.999,0.0,99,0.2,0.0,0
2026,3,13,19,60,?9?9?9?9,-4.7,-7.6,80,99310,9999,9999,9999,16,0,16,999999,999999,999999,9999,69,1.28,10,10,9999,99999,9,999999999,999,0.999,0.001,99,0.2,0.1,1
2026,3,13,20,60,?9?9?9?9,-5.4,-7.7,84,99280,9999,9999,9999,0,0,0,999999,999999,999999,9999,70,2.18,10,10,9999,99999,9,999999999,999,0.999,0.001,99,0.2,0.1,1
2026,3,13,21,60,?9?9?9?9,-5.6,-7.4,86,99240,9999,9999,9999,0,0,0,999999,999999,999999,9999,64,2.77,10,10,9999,99999,9,999999999,999,0.999,0.001,99,0.2,0.1,1
2026,3,13,22,60,?9?9?9?9,-5.8,-7.5,87,99190,9999,9999,9999,0,0,0,999999,999999,999999,9999,63,3.13,10,10,9999,99999,9,999999999,999,0.999,0.001,99,0.2,0.1,1
2026,3,13,23,60,?9?9?9?9,-5.9,-7.7,87,99150,9999,9999,9999,0,0,0,999999,999999,999999,9999,66,3.72,10,10,9999,99999,9,999999999,999,0.999,0.001,99,0.2,0.1,1
2026,3,13,24,60,?9?9?9?9,-5.7,-7.7,86,99060,9999,9999,9999,0,0,0,999999,999999,999999,9999,67,4.19,10,10,9999,99999,9,999999999,999,0.999,0.001,99,0.2,0.1,1
2026,3,14,1,60,?9?9?9?9,-5.6,-7.7,85,98930,9999,9999,9999,0,0,0,999999,999999,999999,9999,70,4.84,10,10,9999,99999,9,999999999,999,0.999,0.001,99,0.2,0.2,1
2026,3,14,2,60,?9?9?9?9,-5.5,-7.4,86,98850,9999,9999,9999,0,0,0,999999,999999,999999,9999,73,5.08,10,10,9999,99999,9,999999999,999,0.999,0.001,99,0.2,0.2,1
2026,3,14,3,60,?9?9?9?9,-5.2,-7.2,86,98740,9999,9999,9999,0,0,0,999999,999999,999999,9999,73,5.12,10,10,9999,99999,9,999999999,999,0.999,0.003,99,0.2,0.4,1
2026,3,14,4,60,?9?9?9?9,-4.8,-6.8,87,98660,9999,9999,9999,0,0,0,999999,999999,999999,9999,75,5.23,10,10,9999,99999,9,999999999,999,0.999,0.003,99,0.2,0.4,1
2026,3,14,5,60,?9?9?9?9,-4.7,-6.3,88,98620,9999,9999,9999,0,0,0,999999,999999,999999,9999,72,5.22,10,10,9999,99999,9,999999999,999,0.999,0.003,99,0.2,0.5,1
2026,3,14,6,60,?9?9?9?9,-4.7,-6.2,89,98620,9999,9999,9999,0,0,0,999999,999999,999999,9999,70,5.0,10,10,9999,99999,9,999999999,999,0.999,0.003,99,0.2,0.5,1
2026,3,14,7,60,?9?9?9?9,-4.6,-6.1,89,98610,9999,9999,9999,0,0,0,999999,999999,999999,9999,68,5.0,10,10,9999,99999,9,999999999,999,0.999,0.003,99,0.2,0.4,1
2026,3,14,8,60,?9?9?9?9,-4.6,-6.2,88,98680,9999,9999,9999,11,0,11,999999,999999,999999,9999,59,4.48,10,10,9999,99999,9,999999999,999,0.999,0.002,99,0.2,0.3,1
2026,3,14,9,60,?9?9?9?9,-3.8,-5.9,85,98730,9999,9999,9999,72,9,70,999999,999999,999999,9999,64,4.49,10,10,9999,99999,9,999999999,999,0.999,0.001,99,0.2,0.1,1
2026,3,14,10,60,?9?9?9?9,-3.2,-5.6,84,98800,9999,9999,9999,149,26,139,999999,999999,999999,9999,64,4.52,10,10,9999,99999,9,999999999,999,0.999,0.0,99,0.2,0.0,0
2026,3,14,11,60,?9?9?9?9,-2.4,-5.3,80,98850,9999,9999,9999,257,53,230,999999,999999,999999,9999,56,4.17,10,10,9999,99999,9,999999999,999,0.999,0.0,99,0.2,0.0,0
2026,3,14,12,60,?9?9?9?9,-1.6,-5.0,78,98910,9999,9999,9999,260,33,240,999999,999999,999999,9999,46,3.78,10,10,9999,99999,9,999999999,999,0.999,0.0,99,0.2,0.0,0
2026,3,14,13,60,?9?9?9?9,-0.9,-4.8,75,98940,9999,9999,9999,214,0,214,999999,999999,999999,9999,29,3.6,10,10,9999,99999,9,999999999,999,0.999,0.0,99,0.2,0.0,0
2026,3,14,14,60,?9?9?9?9,-0.9,-5.2,72,99020,9999,9999,9999,227,2,226,999999,999999,999999,9999,354,3.57,10,10,9999,99999,9,999999999,999,0.999,0.001,99,0.2,0.1,1
2026,3,14,15,60,?9?9?9?9,-0.9,-5.8,69,99120,9999,9999,9999,154,0,154,999999,999999,999999,9999,335,3.69,10,10,9999,99999,9,999999999,999,0.999,0.001,99,0.2,0.2,1
2026,3,14,16,60,?9?9?9?9,-0.6,-5.8,68,99280,9999,9999,9999,172,2,171,999999,999999,999999,9999,327,3.69,10,10,9999,99999,9,999999999,999,0.999,0.001,99,0.2,0.1,1
2026,3,14,17,60,?9?9?9?9,-0.6,-5.7,69,99430,9999,9999,9999,135,5,133,999999,999999,999999,9999,321,4.05,10,10,9999,99999,9,999999999,999,0.999,0.001,99,0.2,0.1,1
2026,3,14,18,60,?9?9?9?9,-1.0,-5.6,71,99610,9999,9999,9999,74,0,74,999999,999999,999999,9999,321,3.2,10,10,9999,99999,9,999999999,999,0.999,0.001,99,0.2,0.1,1
2026,3,14,19,60,?9?9?9?9,-1.7,-5.4,76,99730,9999,9999,9999,22,0,22,999999,999999,999999,9999,321,2.31,10,10,9999,99999,9,999999999,999,0.999,0.0,99,0.2,0.0,0
2026,3,14,20,60,?9?9?9?9,-2.7,-5.2,82,99890,9999,9999,9999,0,0,0,999999,999999,999999,9999,313,3.01,10,10,9999,99999,9,999999999,999,0.999,0.0,99,0.2,0.0,0
2026,3,14,21,60,?9?9?9?9,-2.5,-5.7,79,100090,9999,9999,9999,0,0,0,999999,999999,999999,9999,326,4.29,5,5,9999,99999,9,999999999,999,0.999,0.001,99,0.2,0.1,1
2026,3,14,22,60,?9?9?9?9,-3.4,-7.9,71,100250,9999,9999,9999,0,0,0,999999,999999,999999,9999,324,4.97,0,0,9999,99999,9,999999999,999,0.999,0.0,99,0.2,0.0,0
2026,3,14,23,60,?9?9?9?9,-4.8,-9.9,67,100390,9999,9999,9999,0,0,0,999999,999999,999999,9999,323,4.75,0,0,9999,99999,9,999999999,999,0.999,0.0,99,0.2,0.0,0
2026,3,14,24,60,?9?9?9?9,-6.0,-11.0,68,100490,9999,9999,9999,0,0,0,999999,999999,999999,9999,319,3.93,0,0,9999,99999,9,999999999,999,0.999,0.0,99,0.2,0.0,0
2026,3,15,1,60,?9?9?9?9,-7.7,-11.5,74,100610,9999,9999,9999,0,0,0,999999,999999,999999,9999,307,2.57,0,0,9999,99999,9,999999999,999,0.999,0.0,99,0.2,0.0,0
2026,3,15,2,60,?9?9?9?9,-9.4,-12.5,78,100740,9999,9999,9999,0,0,0,999999,999999,999999,9999,303,2.97,0,0,9999,99999,9,999999999,999,0.999,0.0,99,0.2,0.0,0
2026,3,15,3,60,?9?9?9?9,-10.2,-13.0,80,100870,9999,9999,9999,0,0,0,999999,999999,999999,9999,301,3.16,0,0,9999,99999,9,999999999,999,0.999,0.0,99,0.2,0.0,0
2026,3,15,4,60,?9?9?9?9,-10.9,-13.6,81,100950,9999,9999,9999,0,0,0,999999,999999,999999,9999,315,3.25,0,0,9999,99999,9,999999999,999,0.999,0.0,99,0.2,0.0,0
2026,3,15,5,60,?9?9?9?9,-11.9,-14.4,81,101020,9999,9999,9999,0,0,0,999999,999999,999999,9999,322,2.78,1,1,9999,99999,9,999999999,999,0.999,0.0,99,0.2,0.0,0
2026,3,15,6,60,?9?9?9?9,-13.1,-15.8,80,101160,9999,9999,9999,0,0,0,999999,999999,999999,9999,319,2.2,7,7,9999,99999,9,999999999,999,0.999,0.0,99,0.2,0.0,0
2026,3,15,7,60,?9?9?9?9,-14.2,-17.1,79,101270,9999,9999,9999,0,0,0,999999,999999,999999,9999,319,2.06,10,10,9999,99999,9,999999999,999,0.999,0.0,99,0.2,0.0,0
2026,3,15,8,60,?9?9?9?9,-13.1,-16.1,78,101300,9999,9999,9999,35,74,28,999999,999999,999999,9999,333,2.42,10,10,9999,99999,9,999999999,999,0.999,0.0,99,0.2,0.0,0
2026,3,15,9,60,?9?9?9?9,-9.9,-15.3,65,101420,9999,9999,9999,179,317,104,999999,999999,999999,9999,337,1.79,10,10,9999,99999,9,999999999,999,0.999,0.0,99,0.2,0.0,0
2026,3,15,10,60,?9?9?9?9,-7.0,-14.8,54,101440,9999,9999,9999,369,612,129,999999,999999,999999,9999,8,1.77,10,10,9999,99999,9,999999999,999,0.999,0.0,99,0.2,0.0,0
2026,3,15,11,60,?9?9?9?9,-5.1,-14.4,48,101400,9999,9999,9999,470,461,231,999999,999999,999999,9999,43,1.7,10,10,9999,99999,9,999999999,999,0.999,0.0,99,0.2,0.0,0
2026,3,15,12,60,?9?9?9?9,-4.0,-14.0,46,101390,9999,9999,9999,537,342,329,999999,999999,999999,9999,105,1.71,10,10,9999,99999,9,999999999,999,0.999,0.0,99,0.2,0.0,0
2026,3,15,13,60,?9?9?9?9,-3.2,-13.2,46,101340,9999,9999,9999,663,617,259,999999,999999,999999,9999,139,2.27,10,10,9999,99999,9,999999999,999,0.999,0.0,99,0.2,0.0,0
2026,3,15,14,60,?9?9?9?9,-2.8,-13.1,45,101200,9999,9999,9999,620,472,311,999999,999999,999999,9999,132,2.3,10,10,9999,99999,9,999999999,999,0.999,0.0,99,0.2,0.0,0
2026,3,15,15,60,?9?9?9?9,-3.1,-12.6,48,101170,9999,9999,9999,340,49,310,999999,999999,999999,9999,140,2.09,10,10,9999,99999,9,999999999,999,0.999,0.0,99,0.2,0.0,0
2026,3,15,16,60,?9?9?9?9,-3.7,-12.4,51,101090,9999,9999,9999,151,0,151,999999,999999,999999,9999,128,1.85,10,10,9999,99999,9,999999999,999,0.999,0.0,99,0.2,0.0,0
2026,3,15,17,60,?9?9?9?9,-3.8,-12.1,53,101060,9999,9999,9999,128,15,122,999999,999999,999999,9999,99,1.32,10,10,9999,99999,9,999999999,999,0.999,0.001,99,0.2,0.1,1
2026,3,15,18,60,?9?9?9?9,-4.5,-10.2,64,101020,9999,9999,9999,43,0,43,999999,999999,999999,9999,55,1.94,10,10,9999,99999,9,999999999,999,0.999,0.001,99,0.2,0.2,1
2026,3,15,19,60,?9?9?9?9,-5.3,-9.6,72,100950,9999,9999,9999,11,0,11,999999,999999,999999,9999,65,3.31,10,10,9999,99999,9,999999999,999,0.999,0.002,99,0.2,0.3,1
2026,3,15,20,60,?9?9?9?9,-4.9,-8.6,75,100740,9999,9999,9999,0,0,0,999999,999999,999999,9999,72,4.57,10,10,9999,99999,9,999999999,999,0.999,0.004,99,0.2,0.6,1
2026,3,15,21,60,?9?9?9?9,-4.8,-8.4,76,100670,9999,9999,9999,0,0,0,999999,999999,999999,9999,75,4.72,10,10,9999,99999,9,999999999,999,0.999,0.003,99,0.2,0.4,1
2026,3,15,22,60,?9?9?9?9,-4.7,-8.1,77,100450,9999,9999,9999,0,0,0,999999,999999,999999,9999,84,5.84,10,10,9999,99999,9,999999999,999,0.999,0.003,99,0.2,0.4,1
2026,3,15,23,60,?9?9?9?9,-4.1,-7.3,78,100270,9999,9999,9999,0,0,0,999999,999999,999999,9999,86,5.51,10,10,9999,99999,9,999999999,999,0.999,0.001,99,0.2,0.1,1
2026,3,15,24,60,?9?9?9?9,-3.3,-6.3,79,100130,9999,9999,9999,0,0,0,999999,999999,999999,9999,92,5.25,10,10,9999,99999,9,999999999,999,0.999,0.0,99,0.2,0.0,0
2026,3,16,1,60,?9?9?9?9,-2.4,-5.6,79,100060,9999,9999,9999,0,0,0,999999,999999,999999,9999,96,4.78,10,10,9999,99999,9,999999999,999,0.999,0.0,99,0.2,0.0,0
2026,3,16,2,60,?9?9?9?9,-2.1,-5.2,80,99840,9999,9999,9999,0,0,0,999999,999999,999999,9999,94,5.46,10,10,9999,99999,9,999999999,999,0.999,0.0,99,0.2,0.0,0
2026,3,16,3,60,?9?9?9?9,-1.5,-4.3,81,99690,9999,9999,9999,0,0,0,999999,999999,999999,9999,98,5.56,10,10,9999,99999,9,999999999,999,0.999,0.001,99,0.2,0.1,1
2026,3,16,4,60,?9?9?9?9,-1.2,-3.3,86,99560,9999,9999,9999,0,0,0,999999,999999,999999,9999,101,5.39,10,10,9999,99999,9,999999999,999,0.999,0.003,99,0.2,0.4,1
2026,3,16,5,60,?9?9?9?9,-0.8,-2.5,89,99430,9999,9999,9999,0,0,0,999999,999999,999999,9999,100,5.08,10,10,9999,99999,9,999999999,999,0.999,0.003,99,0.2,0.5,1
2026,3,16,6,60,?9?9?9?9,-0.2,-1.9,88,99350,9999,9999,9999,0,0,0,999999,999999,999999,9999,100,4.68,10,10,9999,99999,9,999999999,999,0.999,0.0,99,0.2,1.2,1
2026,3,16,7,60,?9?9?9?9,0.3,-1.5,88,99220,9999,9999,9999,0,0,0,999999,999999,999999,9999,100,4.52,10,10,9999,99999,9,999999999,999,0.999,0.0,99,0.2,0.9,1
2026,3,16,8,60,?9?9?9?9,-0.4,-1.0,95,99030,9999,9999,9999,6,0,6,999999,999999,999999,9999,88,6.35,10,10,9999,99999,9,999999999,999,0.999,0.0,99,0.2,1.0,1
2026,3,16,9,60,?9?9?9?9,1.1,-0.2,91,98890,9999,9999,9999,23,0,23,999999,999999,999999,9999,96,4.98,10,10,9999,99999,9,999999999,999,0.999,0.0,99,0.2,0.0,0
2026,3,16,10,60,?9?9?9?9,2.2,0.4,88,98760,9999,9999,9999,75,0,75,999999,999999,999999,9999,97,4.63,10,10,9999,99999,9,999999999,999,0.999,0.0,99,0.2,0.7,1
2026,3,16,11,60,?9?9?9?9,3.8,1.5,85,98620,9999,9999,9999,163,6,160,999999,999999,999999,9999,104,3.97,10,10,9999,99999,9,999999999,999,0.999,0.0,99,0.2,0.3,1
2026,3,16,12,60,?9?9?9?9,4.3,1.9,84,98440,9999,9999,9999,155,23,141,999999,999999,999999,9999,96,3.97,10,10,9999,99999,9,999999999,999,0.999,0.0,99,0.2,0.0,0
2026,3,16,13,60,?9?9?9?9,5.9,1.9,76,98310,9999,9999,9999,207,8,202,999999,999999,999999,9999,94,2.96,10,10,9999,99999,9,999999999,999,0.999,0.0,99,0.2,0.0,0
2026,3,16,14,60,?9?9?9?9,5.4,3.0,84,98090,9999,9999,9999,187,3,185,999999,999999,999999,9999,91,3.35,10,10,9999,99999,9,999999999,999,0.999,0.0,99,0.2,0.0,0
2026,3,16,15,60,?9?9?9?9,7.1,3.2,77,97940,9999,9999,9999,197,0,197,999999,999999,999999,9999,93,2.8,10,10,9999,99999,9,999999999,999,0.999,0.0,99,0.2,0.0,0
2026,3,16,16,60,?9?9?9?9,8.0,3.5,73,97820,9999,9999,9999,215,11,209,999999,999999,999999,9999,102,2.81,10,10,9999,99999,9,999999999,999,0.999,0.0,99,0.2,0.0,0
2026,3,16,17,60,?9?9?9?9,8.1,3.7,74,97710,9999,9999,9999,169,23,160,999999,999999,999999,9999,104,2.52,10,10,9999,99999,9,999999999,999,0.999,0.0,99,0.2,0.0,0
2026,3,16,18,60,?9?9?9?9,7.2,4.2,81,97650,9999,9999,9999,66,0,66,999999,999999,999999,9999,114,2.24,10,10,9999,99999,9,999999999,999,0.999,0.0,99,0.2,0.1,1
2026,3,16,19,60,?9?9?9?9,6.7,4.8,88,97540,9999,9999,9999,8,0,8,999999,999999,999999,9999,116,3.4,10,10,9999,99999,9,999999999,999,0.999,0.0,99,0.2,0.9,1
2026,3,16,20,60,?9?9?9?9,6.0,5.4,96,97380,9999,9999,9999,0,0,0,999999,999999,999999,9999,109,3.65,10,10,9999,99999,9,999999999,999,0.999,0.0,99,0.2,0.9,1
2026,3,16,21,60,?9?9?9?9,7.2,6.9,98,97240,9999,9999,9999,0,0,0,999999,999999,999999,9999,124,4.17,10,10,9999,99999,9,999999999,999,0.999,0.0,99,0.2,1.2,1
2026,3,16,22,60,?9?9?9?9,7.6,7.4,99,97060,9999,9999,9999,0,0,0,999999,999999,999999,9999,140,3.94,10,10,9999,99999,9,999999999,999,0.999,0.0,99,0.2,1.3,1
2026,3,16,23,60,?9?9?9?9,8.4,8.2,98,96800,9999,9999,9999,0,0,0,999999,999999,999999,9999,146,4.76,10,10,9999,99999,9,999999999,999,0.999,0.0,99,0.2,0.3,1
2026,3,16,24,60,?9?9?9?9,8.7,8.5,99,96610,9999,9999,9999,0,0,0,999999,999999,999999,9999,155,4.74,10,10,9999,99999,9,999999999,999,0.999,0.0,99,0.2,0.5,1
2026,3,17,1,60,?9?9?9?9,6.2,6.2,100,96460,9999,9999,9999,0,0,0,999999,999999,999999,9999,197,3.04,10,10,9999,99999,9,999999999,999,0.999,0.0,99,0.2,0.5,1
2026,3,17,2,60,?9?9?9?9,3.5,3.5,100,96340,9999,9999,9999,0,0,0,999999,999999,999999,9999,202,5.61,10,10,9999,99999,9,999999999,999,0.999,0.0,99,0.2,0.4,1
2026,3,17,3,60,?9?9?9?9,2.3,1.4,93,96400,9999,9999,9999,0,0,0,999999,999999,999999,9999,214,6.63,10,10,9999,99999,9,999999999,999,0.999,0.0,99,0.2,0.4,1
2026,3,17,4,60,?9?9?9?9,1.6,0.3,91,96540,9999,9999,9999,0,0,0,999999,999999,999999,9999,216,6.4,10,10,9999,99999,9,999999999,999,0.999,0.001,99,0.2,0.9,1
2026,3,17,5,60,?9?9?9?9,0.9,-0.4,91,96730,9999,9999,9999,0,0,0,999999,999999,999999,9999,214,7.31,10,10,9999,99999,9,999999999,999,0.999,0.006,99,0.2,1.0,1
2026,3,17,6,60,?9?9?9?9,0.4,-1.2,89,96900,9999,9999,9999,0,0,0,999999,999999,999999,9999,216,7.55,10,10,9999,99999,9,999999999,999,0.999,0.005,99,0.2,0.8,1
2026,3,17,7,60,?9?9?9?9,-0.3,-2.8,83,97090,9999,9999,9999,0,0,0,999999,999999,999999,9999,218,8.22,7,7,9999,99999,9,999999999,999,0.999,0.001,99,0.2,0.1,1
2026,3,17,8,60,?9?9?9?9,-1.1,-5.0,75,97290,9999,9999,9999,36,120,24,999999,999999,999999,9999,218,8.83,0,0,9999,99999,9,999999999,999,0.999,0.0,99,0.2,0.0,0
2026,3,17,9,60,?9?9?9?9,-3.0,-8.6,65,97440,9999,9999,9999,213,579,69,999999,999999,999999,9999,222,9.49,3,3,9999,99999,9,999999999,999,0.999,0.0,99,0.2,0.0,0
2026,3,17,10,60,?9?9?9?9,-3.7,-9.6,63,97610,9999,9999,9999,334,471,144,999999,999999,999999,9999,223,8.81,10,10,9999,99999,9,999999999,999,0.999,0.0,99,0.2,0.0,0
2026,3,17,11,60,?9?9?9?9,-4.4,-11.4,58,97760,9999,9999,9999,390,172,299,999999,999999,999999,9999,227,8.67,8,8,9999,99999,9,999999999,999,0.999,0.0,99,0.2,0.0,0
2026,3,17,12,60,?9?9?9?9,-4.8,-12.1,57,97890,9999,9999,9999,474,266,309,999999,999999,999999,9999,226,8.31,10,10,9999,99999,9,999999999,999,0.999,0.0,99,0.2,0.0,0
2026,3,17,13,60,?9?9?9?9,-6.1,-12.6,60,98040,9999,9999,9999,330,33,308,999999,999999,999999,9999,230,7.8,10,10,9999,99999,9,999999999,999,0.999,0.0,99,0.2,0.0,0
2026,3,17,14,60,?9?9?9?9,-6.3,-13.0,59,98220,9999,9999,9999,293,24,277,999999,999999,999999,9999,235,8.16,10,10,9999,99999,9,999999999,999,0.999,0.0,99,0.2,0.0,0
2026,3,17,15,60,?9?9?9?9,-7.2,-14.8,55,98380,9999,9999,9999,363,62,325,999999,999999,999999,9999,246,7.18,10,10,9999,99999,9,999999999,999,0.999,0.0,99,0.2,0.0,0
2026,3,17,16,60,?9?9?9?9,-8.2,-16.5,52,98610,9999,9999,9999,339,121,275,999999,999999,999999,9999,255,6.59,10,10,9999,99999,9,999999999,999,0.999,0.0,99,0.2,0.0,0
2026,3,17,17,60,?9?9?9?9,-9.5,-18.1,50,98810,9999,9999,9999,258,157,195,999999,999999,999999,9999,268,6.65,10,10,9999,99999,9,999999999,999,0.999,0.0,99,0.2,0.0,0
2026,3,17,18,60,?9?9?9?9,-10.6,-18.9,51,99000,9999,9999,9999,152,130,120,999999,999999,999999,9999,274,6.06,8,8,9999,99999,9,999999999,999,0.999,0.0,99,0.2,0.0,0
2026,3,17,19,60,?9?9?9?9,-11.6,-18.8,55,99210,9999,9999,9999,45,171,28,999999,999999,999999,9999,271,4.4,0,0,9999,99999,9,999999999,999,0.999,0.0,99,0.2,0.0,0
2026,3,17,20,60,?9?9?9?9,-12.9,-18.2,64,99420,9999,9999,9999,0,0,0,999999,999999,999999,9999,269,3.85,0,0,9999,99999,9,999999999,999,0.999,0.0,99,0.2,0.0,0
2026,3,17,21,60,?9?9?9?9,-13.4,-18.5,65,99550,9999,9999,9999,0,0,0,999999,999999,999999,9999,272,3.45,2,2,9999,99999,9,999999999,999,0.999,0.0,99,0.2,0.0,0
2026,3,17,22,60,?9?9?9?9,-14.2,-19.0,67,99660,9999,9999,9999,0,0,0,999999,999999,999999,9999,270,3.2,9,9,9999,99999,9,999999999,999,0.999,0.0,99,0.2,0.0,0
2026,3,17,23,60,?9?9?9?9,-14.6,-19.0,70,99750,9999,9999,9999,0,0,0,999999,999999,999999,9999,271,2.75,0,0,9999,99999,9,999999999,999,0.999,0.0,99,0.2,0.0,0
2026,3,17,24,60,?9?9?9?9,-15.9,-19.4,74,99840,9999,9999,9999,0,0,0,999999,999999,999999,9999,276,2.31,1,1,9999,99999,9,999999999,999,0.999,0.0,99,0.2,0.0,0
2026,3,18,1,60,?9?9?9?9,-17.0,-20.3,76,99950,9999,9999,9999,0,0,0,999999,999999,999999,9999,287,1.93,0,0,9999,99999,9,999999999,999,0.999,0.0,99,0.2,0.0,0
2026,3,18,2,60,?9?9?9?9,-18.6,-21.8,76,100070,9999,9999,9999,0,0,0,999999,999999,999999,9999,278,1.77,0,0,9999,99999,9,999999999,999,0.999,0.0,99,0.2,0.0,0
2026,3,18,3,60,?9?9?9?9,-19.4,-22.5,77,100180,9999,9999,9999,0,0,0,999999,999999,999999,9999,272,1.9,0,0,9999,99999,9,999999999,999,0.999,0.0,99,0.2,0.0,0
2026,3,18,4,60,?9?9?9?9,-20.4,-23.4,77,100280,9999,9999,9999,0,0,0,999999,999999,999999,9999,268,1.9,0,0,9999,99999,9,999999999,999,0.999,0.0,99,0.2,0.0,0
2026,3,18,5,60,?9?9?9?9,-20.9,-24.0,76,100400,9999,9999,9999,0,0,0,999999,999999,999999,9999,283,1.95,0,0,9999,99999,9,999999999,999,0.999,0.0,99,0.2,0.0,0
2026,3,18,6,60,?9?9?9?9,-21.1,-24.4,75,100520,9999,9999,9999,0,0,0,999999,999999,999999,9999,290,2.07,0,0,9999,99999,9,999999999,999,0.999,0.0,99,0.2,0.0,0
2026,3,18,7,60,?9?9?9?9,-21.5,-24.9,75,100610,9999,9999,9999,0,0,0,999999,999999,999999,9999,290,2.02,0,0,9999,99999,9,999999999,999,0.999,0.0,99,0.2,0.0,0
2026,3,18,8,60,?9?9?9?9,-19.8,-23.2,74,100720,9999,9999,9999,59,348,23,999999,999999,999999,9999,293,2.44,0,0,9999,99999,9,999999999,999,0.999,0.0,99,0.2,0.0,0
2026,3,18,9,60,?9?9?9?9,-15.8,-21.6,61,100840,9999,9999,9999,237,676,65,999999,999999,999999,9999,279,1.32,0,0,9999,99999,9,999999999,999,0.999,0.0,99,0.2,0.0,0
2026,3,18,10,60,?9?9?9?9,-13.6,-21.2,53,100920,9999,9999,9999,424,823,87,999999,999999,999999,9999,252,1.63,0,0,9999,99999,9,999999999,999,0.999,0.0,99,0.2,0.0,0
2026,3,18,11,60,?9?9?9?9,-12.1,-21.0,47,100980,9999,9999,9999,583,898,102,999999,999999,999999,9999,263,2.47,7,7,9999,99999,9,999999999,999,0.999,0.0,99,0.2,0.0,0
2026,3,18,12,60,?9?9?9?9,-10.6,-20.4,45,101030,9999,9999,9999,692,908,125,999999,999999,999999,9999,240,3.0,8,8,9999,99999,9,999999999,999,0.999,0.0,99,0.2,0.0,0
2026,3,18,13,60,?9?9?9?9,-9.1,-20.0,41,101030,9999,9999,9999,750,923,131,999999,999999,999999,9999,223,3.29,5,5,9999,99999,9,999999999,999,0.999,0.0,99,0.2,0.0,0
2026,3,18,14,60,?9?9?9?9,-8.6,-18.1,46,100980,9999,9999,9999,745,902,141,999999,999999,999999,9999,220,2.94,10,10,9999,99999,9,999999999,999,0.999,0.0,99,0.2,0.0,0
2026,3,18,15,60,?9?9?9?9,-7.8,-17.4,46,100920,9999,9999,9999,647,663,234,999999,999999,999999,9999,218,3.1,10,10,9999,99999,9,999999999,999,0.999,0.0,99,0.2,0.0,0
2026,3,18,16,60,?9?9?9?9,-7.6,-16.2,50,100890,9999,9999,9999,521,602,200,999999,999999,999999,9999,207,3.15,10,10,9999,99999,9,999999999,999,0.999,0.0,99,0.2,0.0,0
2026,3,18,17,60,?9?9?9?9,-7.7,-15.6,53,100880,9999,9999,9999,319,271,209,999999,999999,999999,9999,202,2.8,10,10,9999,99999,9,999999999,999,0.999,0.0,99,0.2,0.0,0
2026,3,18,18,60,?9?9?9?9,-7.9,-15.1,56,100890,9999,9999,9999,156,131,123,999999,999999,999999,9999,189,2.28,10,10,9999,99999,9,999999999,999,0.999,0.0,99,0.2,0.0,0
2026,3,18,19,60,?9?9?9?9,-9.2,-14.0,68,100950,9999,9999,9999,36,30,33,999999,999999,999999,9999,157,2.06,10,10,9999,99999,9,999999999,999,0.999,0.0,99,0.2,0.0,0
2026,3,18,20,60,?9?9?9?9,-10.1,-14.2,72,100950,9999,9999,9999,0,0,0,999999,999999,999999,9999,136,2.37,10,10,9999,99999,9,999999999,999,0.999,0.0,99,0.2,0.0,0
2026,3,18,21,60,?9?9?9?9,-10.1,-14.5,70,101000,9999,9999,9999,0,0,0,999999,999999,999999,9999,130,1.7,10,10,9999,99999,9,999999999,999,0.999,0.0,99,0.2,0.0,0
2026,3,18,22,60,?9?9?9?9,-10.4,-14.9,69,100990,9999,9999,9999,0,0,0,999999,999999,999999,9999,124,1.87,10,10,9999,99999,9,999999999,999,0.999,0.0,99,0.2,0.0,0
2026,3,18,23,60,?9?9?9?9,-10.1,-14.4,70,100940,9999,9999,9999,0,0,0,999999,999999,999999,9999,99,2.28,10,10,9999,99999,9,999999999,999,0.999,0.0,99,0.2,0.0,0
2026,3,18,24,60,?9?9?9?9,-10.4,-14.3,73,100880,9999,9999,9999,0,0,0,999999,999999,999999,9999,87,2.65,10,10,9999,99999,9,999999999,999,0.999,0.0,99,0.2,0.0,0
2026,3,19,1,60,?9?9?9?9,-10.9,-14.6,74,100820,9999,9999,9999,0,0,0,999999,999999,999999,9999,69,2.74,10,10,9999,99999,9,999999999,999,0.999,0.0,99,0.2,0.0,0
2026,3,19,2,60,?9?9?9?9,-11.6,-14.9,76,100790,9999,9999,9999,0,0,0,999999,999999,999999,9999,71,2.86,10,10,9999,99999,9,999999999,999,0.999,0.0,99,0.2,0.0,0
2026,3,19,3,60,?9?9?9?9,-11.7,-15.2,75,100730,9999,9999,9999,0,0,0,999999,999999,999999,9999,60,2.78,10,10,9999,99999,9,999999999,999,0.999,0.0,99,0.2,0.0,0
2026,3,19,4,60,?9?9?9?9,-11.6,-15.2,75,100640,9999,9999,9999,0,0,0,999999,999999,999999,9999,53,2.89,10,10,9999,99999,9,999999999,999,0.999,0.0,99,0.2,0.0,0
2026,3,19,5,60,?9?9?9?9,-11.4,-15.1,74,100590,9999,9999,9999,0,0,0,999999,999999,999999,9999,61,2.75,10,10,9999,99999,9,999999999,999,0.999,0.0,99,0.2,0.0,0
2026,3,19,6,60,?9?9?9?9,-11.5,-14.9,76,100520,9999,9999,9999,0,0,0,999999,999999,999999,9999,62,2.73,10,10,9999,99999,9,999999999,999,0.999,0.0,99,0.2,0.0,0
2026,3,19,7,60,?9?9?9?9,-11.1,-14.4,77,100480,9999,9999,9999,0,0,0,999999,999999,999999,9999,64,2.55,10,10,9999,99999,9,999999999,999,0.999,0.001,99,0.2,0.1,1
2026,3,19,8,60,?9?9?9?9,-10.3,-13.8,76,100460,9999,9999,9999,36,0,36,999999,999999,999999,9999,70,2.61,10,10,9999,99999,9,999999999,999,0.999,0.001,99,0.2,0.1,1
2026,3,19,9,60,?9?9?9?9,-8.2,-12.6,71,100410,9999,9999,9999,149,69,131,999999,999999,999999,9999,76,2.01,10,10,9999,99999,9,999999999,999,0.999,0.001,99,0.2,0.1,1
2026,3,19,10,60,?9?9?9?9,-6.2,-11.1,68,100370,9999,9999,9999,237,24,227,999999,999999,999999,9999,93,1.8,10,10,9999,99999,9,999999999,999,0.999,0.001,99,0.2,0.1,1
2026,3,19,11,60,?9?9?9?9,-4.3,-9.4,68,100290,9999,9999,9999,283,22,271,999999,999999,999999,9999,124,1.8,10,10,9999,99999,9,999999999,999,0.999,0.001,99,0.2,0.1,1
2026,3,19,12,60,?9?9?9?9,-2.1,-7.4,67,100200,9999,9999,9999,444,141,355,999999,999999,999999,9999,178,4.2,10,10,9999,99999,9,999999999,999,0.999,0.001,99,0.2,0.1,1
2026,3,19,13,60,?9?9?9?9,-1.5,-6.1,71,100110,9999,9999,9999,407,99,340,999999,999999,999999,9999,184,4.96,10,10,9999,99999,9,999999999,999,0.999,0.001,99,0.2,0.1,1
2026,3,19,14,60,?9?9?9?9,-1.2,-4.9,76,100030,9999,9999,9999,406,42,378,999999,999999,999999,9999,180,5.05,10,10,9999,99999,9,999999999,999,0.999,0.001,99,0.2,0.1,1
2026,3,19,15,60,?9?9?9?9,-0.9,-4.3,77,99950,9999,9999,9999,264,37,241,999999,999999,999999,9999,185,5.67,10,10,9999,99999,9,999999999,999,0.999,0.001,99,0.2,0.2,1
2026,3,19,16,60,?9?9?9?9,-0.9,-3.9,80,99890,9999,9999,9999,172,19,162,999999,999999,999999,9999,187,5.49,10,10,9999,99999,9,999999999,999,0.999,0.001,99,0.2,0.2,1
2026,3,19,17,60,?9?9?9?9,-1.1,-3.3,85,99840,9999,9999,9999,95,0,95,999999,999999,999999,9999,186,4.12,10,10,9999,99999,9,999999999,999,0.999,0.002,99,0.2,0.3,1
2026,3,19,18,60,?9?9?9?9,-1.3,-3.0,88,99830,9999,9999,9999,46,0,46,999999,999999,999999,9999,190,3.66,10,10,9999,99999,9,999999999,999,0.999,0.002,99,0.2,0.3,1
2026,3,19,19,60,?9?9?9?9,-1.5,-2.8,91,99790,9999,9999,9999,11,0,11,999999,999999,999999,9999,193,2.83,10,10,9999,99999,9,999999999,999,0.999,0.001,99,0.2,0.2,1
2026,3,19,20,60,?9?9?9?9,-1.4,-2.4,93,99800,9999,9999,9999,0,0,0,999999,999999,999999,9999,211,3.03,10,10,9999,99999,9,999999999,999,0.999,0.001,99,0.2,0.0,0
2026,3,19,21,60,?9?9?9?9,-1.8,-2.5,95,99790,9999,9999,9999,0,0,0,999999,999999,999999,9999,213,2.63,10,10,9999,99999,9,999999999,999,0.999,0.0,99,0.2,0.0,0
2026,3,19,22,60,?9?9?9?9,-2.9,-3.5,96,99770,9999,9999,9999,0,0,0,999999,999999,999999,9999,232,2.53,6,6,9999,99999,9,999999999,999,0.999,0.0,99,0.2,0.0,0
2026,3,19,23,60,?9?9?9?9,-4.1,-5.1,93,99770,9999,9999,9999,0,0,0,999999,999999,999999,9999,257,2.72,6,6,9999,99999,9,999999999,999,0.999,0.001,99,0.2,0.1,1
2026,3,19,24,60,?9?9?9?9,-4.1,-6.1,86,99750,9999,9999,9999,0,0,0,999999,999999,999999,9999,296,3.44,2,2,9999,99999,9,999999999,999,0.999,0.0,99,0.2,0.0,0
2026,3,20,1,60,?9?9?9?9,-4.1,-7.3,78,99780,9999,9999,9999,0,0,0,999999,999999,999999,9999,311,4.25,0,0,9999,99999,9,999999999,999,0.999,0.0,99,0.2,0.0,0
2026,3,20,2,60,?9?9?9?9,-4.6,-7.4,80,99810,9999,9999,9999,0,0,0,999999,999999,999999,9999,309,3.98,0,0,9999,99999,9,999999999,999,0.999,0.0,99,0.2,0.0,0
2026,3,20,3,60,?9?9?9?9,-5.4,-8.2,81,99820,9999,9999,9999,0,0,0,999999,999999,999999,9999,307,3.86,0,0,9999,99999,9,999999999,999,0.999,0.0,99,0.2,0.0,0
2026,3,20,4,60,?9?9?9?9,-6.8,-9.0,84,99840,9999,9999,9999,0,0,0,999999,999999,999999,9999,307,3.18,2,2,9999,99999,9,999999999,999,0.999,0.0,99,0.2,0.0,0
2026,3,20,5,60,?9?9?9?9,-8.0,-10.1,85,99950,9999,9999,9999,0,0,0,999999,999999,999999,9999,297,3.58,5,5,9999,99999,9,999999999,999,0.999,0.0,99,0.2,0.0,0
2026,3,20,6,60,?9?9?9?9,-8.9,-10.9,85,99920,9999,9999,9999,0,0,0,999999,999999,999999,9999,312,2.83,10,10,9999,99999,9,999999999,999,0.999,0.0,99,0.2,0.0,0
2026,3,20,7,60,?9?9?9?9,-9.0,-11.2,84,99940,9999,9999,9999,0,0,0,999999,999999,999999,9999,315,2.69,10,10,9999,99999,9,999999999,999,0.999,0.0,99,0.2,0.0,0
2026,3,20,8,60,?9?9?9?9,-7.6,-10.4,80,99910,9999,9999,9999,43,27,40,999999,999999,999999,9999,331,2.57,10,10,9999,99999,9,999999999,999,0.999,0.0,99,0.2,0.0,0
2026,3,20,9,60,?9?9?9?9,-6.0,-9.7,75,99870,9999,9999,9999,111,0,111,999999,999999,999999,9999,343,1.68,10,10,9999,99999,9,999999999,999,0.999,0.001,99,0.2,0.1,1
2026,3,20,10,60,?9?9?9?9,-4.6,-9.2,70,99820,9999,9999,9999,192,10,188,999999,999999,999999,9999,22,1.35,10,10,9999,99999,9,999999999,999,0.999,0.001,99,0.2,0.1,1
2026,3,20,11,60,?9?9?9?9,-4.3,-8.6,72,99740,9999,9999,9999,206,4,204,999999,999999,999999,9999,83,1.21,10,10,9999,99999,9,999999999,999,0.999,0.003,99,0.2,0.4,1
2026,3,20,12,60,?9?9?9?9,-4.1,-8.2,73,99680,9999,9999,9999,219,0,219,999999,999999,999999,9999,126,1.43,10,10,9999,99999,9,999999999,999,0.999,0.003,99,0.2,0.5,1
2026,3,20,13,60,?9?9?9?9,-3.5,-7.7,73,99620,9999,9999,9999,318,19,305,999999,999999,999999,9999,143,2.18,10,10,9999,99999,9,999999999,999,0.999,0.002,99,0.2,0.3,1
2026,3,20,14,60,?9?9?9?9,-2.8,-7.4,70,99480,9999,9999,9999,483,141,387,999999,999999,999999,9999,125,2.44,10,10,9999,99999,9,999999999,999,0.999,0.001,99,0.2,0.1,1
2026,3,20,15,60,?9?9?9?9,-2.2,-7.4,67,99350,9999,9999,9999,523,250,365,999999,999999,999999,9999,122,2.47,10,10,9999,99999,9,999999999,999,0.999,0.0,99,0.2,0.0,0
2026,3,20,16,60,?9?9?9?9,-1.9,-7.8,64,99290,9999,9999,9999,465,339,281,999999,999999,999999,9999,118,1.92,10,10,9999,99999,9,999999999,999,0.999,0.0,99,0.2,0.0,0
2026,3,20,17,60,?9?9?9?9,-2.1,-7.8,65,99250,9999,9999,9999,326,345,183,999999,999999,999999,9999,98,1.41,10,10,9999,99999,9,999999999,999,0.999,0.0,99,0.2,0.0,0
2026,3,20,18,60,?9?9?9?9,-2.7,-7.2,71,99220,9999,9999,9999,109,12,106,999999,999999,999999,9999,94,1.55,10,10,9999,99999,9,999999999,999,0.999,0.0,99,0.2,0.0,0
2026,3,20,19,60,?9?9?9?9,-4.2,-6.8,81,99170,9999,9999,9999,40,76,32,999999,999999,999999,9999,65,1.43,6,6,9999,99999,9,999999999,999,0.999,0.0,99,0.2,0.0,0
2026,3,20,20,60,?9?9?9?9,-3.9,-6.2,84,99210,9999,9999,9999,0,0,0,999999,999999,999999,9999,42,2.23,10,10,9999,99999,9,999999999,999,0.999,0.0,99,0.2,0.0,0
2026,3,20,21,60,?9?9?9?9,-4.9,-7.1,85,99230,9999,9999,9999,0,0,0,999999,999999,999999,9999,17,1.72,3,3,9999,99999,9,999999999,999,0.999,0.0,99,0.2,0.0,0
2026,3,20,22,60,?9?9?9?9,-6.3,-8.6,84,99210,9999,9999,9999,0,0,0,999999,999999,999999,9999,2,1.8,0,0,9999,99999,9,999999999,999,0.999,0.0,99,0.2,0.0,0
2026,3,20,23,60,?9?9?9?9,-8.1,-10.3,84,99200,9999,9999,9999,0,0,0,999999,999999,999999,9999,346,1.65,0,0,9999,99999,9,999999999,999,0.999,0.0,99,0.2,0.0,0
2026,3,20,24,60,?9?9?9?9,-8.6,-10.9,84,99200,9999,9999,9999,0,0,0,999999,999999,999999,9999,340,2.39,0,0,9999,99999,9,999999999,999,0.999,0.0,99,0.2,0.0,0
2026,3,21,1,60,?9?9?9?9,-8.6,-11.1,82,99210,9999,9999,9999,0,0,0,999999,999999,999999,9999,337,2.71,0,0,9999,99999,9,999999999,999,0.999,0.0,99,0.2,0.0,0
2026,3,21,2,60,?9?9?9?9,-8.9,-11.4,82,99270,9999,9999,9999,0,0,0,999999,999999,999999,9999,344,2.55,1,1,9999,99999,9,999999999,999,0.999,0.0,99,0.2,0.0,0
2026,3,21,3,60,?9?9?9?9,-9.6,-11.9,83,99230,9999,9999,9999,0,0,0,999999,999999,999999,9999,359,2.2,0,0,9999,99999,9,999999999,999,0.999,0.0,99,0.2,0.0,0
2026,3,21,4,60,?9?9?9?9,-10.2,-12.6,83,99250,9999,9999,9999,0,0,0,999999,999999,999999,9999,347,2.3,4,4,9999,99999,9,999999999,999,0.999,0.0,99,0.2,0.0,0
2026,3,21,5,60,?9?9?9?9,-10.1,-12.4,83,99300,9999,9999,9999,0,0,0,999999,999999,999999,9999,343,2.83,10,10,9999,99999,9,999999999,999,0.999,0.0,99,0.2,0.0,0
2026,3,21,6,60,?9?9?9?9,-9.6,-11.8,84,99320,9999,9999,9999,0,0,0,999999,999999,999999,9999,334,2.66,10,10,9999,99999,9,999999999,999,0.999,0.0,99,0.2,0.0,0
2026,3,21,7,60,?9?9?9?9,-9.8,-11.9,85,99390,9999,9999,9999,0,0,0,999999,999999,999999,9999,329,2.4,10,10,9999,99999,9,999999999,999,0.999,0.0,99,0.2,0.0,0
2026,3,21,8,60,?9?9?9?9,-7.6,-10.3,81,99500,9999,9999,9999,39,45,34,999999,999999,999999,9999,327,2.57,10,10,9999,99999,9,999999999,999,0.999,0.0,99,0.2,0.0,0
2026,3,21,9,60,?9?9?9?9,-4.6,-8.5,74,99570,9999,9999,9999,122,4,121,999999,999999,999999,9999,331,1.66,10,10,9999,99999,9,999999999,999,0.999,0.001,99,0.2,0.1,1
2026,3,21,10,60,?9?9?9?9,-1.8,-7.1,67,99630,9999,9999,9999,301,176,226,999999,999999,999999,9999,340,1.44,3,3,9999,99999,9,999999999,999,0.999,0.001,99,0.2,0.1,1
2026,3,21,11,60,?9?9?9?9,0.3,-7.6,55,99640,9999,9999,9999,529,580,209,999999,999999,999999,9999,329,2.44,10,10,9999,99999,9,999999999,999,0.999,0.0,99,0.2,0.0,0
2026,3,21,12,60,?9?9?9?9,1.1,-7.3,53,99610,9999,9999,9999,506,345,285,999999,999999,999999,9999,308,2.78,10,10,9999,99999,9,999999999,999,0.999,0.0,99,0.2,0.0,0
2026,3,21,13,60,?9?9?9?9,1.7,-8.1,48,99570,9999,9999,9999,454,159,345,999999,999999,999999,9999,299,2.75,5,5,9999,99999,9,999999999,999,0.999,0.001,99,0.2,0.1,1
2026,3,21,14,60,?9?9?9?9,2.3,-10.8,37,99590,9999,9999,9999,657,533,292,999999,999999,999999,9999,307,4.25,6,6,9999,99999,9,999999999,999,0.999,0.001,99,0.2,0.2,1
2026,3,21,15,60,?9?9?9?9,3.3,-10.6,35,99590,9999,9999,9999,664,738,194,999999,999999,999999,9999,305,4.88,2,2,9999,99999,9,999999999,999,0.999,0.0,99,0.2,0.0,0
2026,3,21,16,60,?9?9?9?9,3.0,-11.3,34,99550,9999,9999,9999,565,776,141,999999,999999,999999,9999,315,4.49,0,0,9999,99999,9,999999999,999,0.999,0.0,99,0.2,0.0,0
2026,3,21,17,60,?9?9?9?9,2.1,-10.9,37,99580,9999,9999,9999,429,811,89,999999,999999,999999,9999,318,3.61,2,2,9999,99999,9,999999999,999,0.999,0.0,99,0.2,0.0,0
2026,3,21,18,60,?9?9?9?9,0.8,-9.6,46,99570,9999,9999,9999,243,675,65,999999,999999,999999,9999,337,2.17,2,2,9999,99999,9,999999999,999,0.999,0.0,99,0.2,0.0,0
2026,3,21,19,60,?9?9?9?9,-3.0,-9.2,63,99580,9999,9999,9999,65,370,25,999999,999999,999999,9999,337,2.33,9,9,9999,99999,9,999999999,999,0.999,0.0,99,0.2,0.0,0
2026,3,21,20,60,?9?9?9?9,-4.1,-9.4,66,99590,9999,9999,9999,0,0,0,999999,999999,999999,9999,342,3.0,5,5,9999,99999,9,999999999,999,0.999,0.0,99,0.2,0.0,0
2026,3,21,21,60,?9?9?9?9,-4.6,-9.4,69,99670,9999,9999,9999,0,0,0,999999,999999,999999,9999,2,3.65,10,10,9999,99999,9,999999999,999,0.999,0.0,99,0.2,0.0,0
2026,3,21,22,60,?9?9?9?9,-4.8,-10.1,66,99680,9999,9999,9999,0,0,0,999999,999999,999999,9999,6,3.67,10,10,9999,99999,9,999999999,999,0.999,0.0,99,0.2,0.0,0
2026,3,21,23,60,?9?9?9?9,-5.0,-10.6,65,99710,9999,9999,9999,0,0,0,999999,999999,999999,9999,3,3.4,10,10,9999,99999,9,999999999,999,0.999,0.0,99,0.2,0.0,0
2026,3,21,24,60,?9?9?9?9,-5.6,-10.6,68,99700,9999,9999,9999,0,0,0,999999,999999,999999,9999,6,2.67,10,10,9999,99999,9,999999999,999,0.999,0.0,99,0.2,0.0,0
2026,3,22,1,60,?9?9?9?9,-6.3,-10.4,73,99740,9999,9999,9999,0,0,0,999999,999999,999999,9999,23,2.4,10,10,9999,99999,9,999999999,999,0.999,0.0,99,0.2,0.0,0
2026,3,22,2,60,?9?9?9?9,-6.3,-10.0,75,99670,9999,9999,9999,0,0,0,999999,999999,999999,9999,46,2.51,10,10,9999,99999,9,999999999,999,0.999,0.0,99,0.2,0.0,0
2026,3,22,3,60,?9?9?9?9,-6.3,-10.0,75,99670,9999,9999,9999,0,0,0,999999,999999,999999,9999,48,2.48,10,10,9999,99999,9,999999999,999,0.999,0.0,99,0.2,0.0,0
2026,3,22,4,60,?9?9?9?9,-6.7,-10.4,75,99590,9999,9999,9999,0,0,0,999999,999999,999999,9999,46,3.15,10,10,9999,99999,9,999999999,999,0.999,0.001,99,0.2,0.1,1
2026,3,22,5,60,?9?9?9?9,-7.1,-10.9,74,99550,9999,9999,9999,0,0,0,999999,999999,999999,9999,43,3.33,10,10,9999,99999,9,999999999,999,0.999,0.001,99,0.2,0.1,1
2026,3,22,6,60,?9?9?9?9,-7.2,-10.9,75,99530,9999,9999,9999,0,0,0,999999,999999,999999,9999,49,3.3,10,10,9999,99999,9,999999999,999,0.999,0.001,99,0.2,0.2,1
2026,3,22,7,60,?9?9?9?9,-7.3,-10.9,76,99470,9999,9999,9999,0,0,0,999999,999999,999999,9999,56,3.97,10,10,9999,99999,9,999999999,999,0.999,0.003,99,0.2,0.4,1
2026,3,22,8,60,?9?9?9?9,-7.2,-10.6,77,99420,9999,9999,9999,23,0,23,999999,999999,999999,9999,55,4.48,10,10,9999,99999,9,999999999,999,0.999,0.003,99,0.2,0.5,1
2026,3,22,9,60,?9?9?9?9,-6.9,-10.1,79,99330,9999,9999,9999,55,0,55,999999,999999,999999,9999,51,4.3,10,10,9999,99999,9,999999999,999,0.999,0.006,99,0.2,0.8,1
2026,3,22,10,60,?9?9?9?9,-6.5,-9.8,77,99320,9999,9999,9999,104,0,104,999999,999999,999999,9999,55,4.34,10,10,9999,99999,9,999999999,999,0.999,0.006,99,0.2,0.8,1
2026,3,22,11,60,?9?9?9?9,-5.9,-9.2,77,99250,9999,9999,9999,149,0,149,999999,999999,999999,9999,56,4.76,10,10,9999,99999,9,999999999,999,0.999,0.005,99,0.2,0.7,1
2026,3,22,12,60,?9?9?9?9,-5.1,-8.8,75,99220,9999,9999,9999,205,5,202,999999,999999,999999,9999,57,5.67,10,10,9999,99999,9,999999999,999,0.999,0.004,99,0.2,0.6,1
2026,3,22,13,60,?9?9?9?9,-4.7,-8.4,75,99230,9999,9999,9999,204,1,203,999999,999999,999999,9999,56,5.62,10,10,9999,99999,9,999999999,999,0.999,0.003,99,0.2,0.5,1
2026,3,22,14,60,?9?9?9?9,-4.3,-8.2,75,99190,9999,9999,9999,179,0,179,999999,999999,999999,9999,53,5.43,10,10,9999,99999,9,999999999,999,0.999,0.003,99,0.2,0.4,1
2026,3,22,15,60,?9?9?9?9,-3.6,-7.7,74,99180,9999,9999,9999,279,9,273,999999,999999,999999,9999,58,5.51,10,10,9999,99999,9,999999999,999,0.999,0.001,99,0.2,0.2,1
2026,3,22,16,60,?9?9?9?9,-3.2,-7.2,74,99220,9999,9999,9999,234,31,217,999999,999999,999999,9999,56,5.59,10,10,9999,99999,9,999999999,999,0.999,0.001,99,0.2,0.1,1
2026,3,22,17,60,?9?9?9?9,-2.8,-6.9,73,99300,9999,9999,9999,176,19,168,999999,999999,999999,9999,50,5.08,10,10,9999,99999,9,999999999,999,0.999,0.0,99,0.2,0.0,0
2026,3,22,18,60,?9?9?9?9,-2.8,-6.8,74,99400,9999,9999,9999,85,4,84,999999,999999,999999,9999,44,4.31,10,10,9999,99999,9,999999999,999,0.999,0.0,99,0.2,0.0,0
2026,3,22,19,60,?9?9?9?9,-2.7,-6.3,76,99470,9999,9999,9999,27,0,27,999999,999999,999999,9999,40,3.8,10,10,9999,99999,9,999999999,999,0.999,0.0,99,0.2,0.0,0
2026,3,22,20,60,?9?9?9?9,-3.2,-6.3,79,99570,9999,9999,9999,0,0,0,999999,999999,999999,9999,44,3.64,9,9,9999,99999,9,999999999,999,0.999,0.0,99,0.2,0.0,0
2026,3,22,21,60,?9?9?9?9,-4.2,-7.0,81,99670,9999,9999,9999,0,0,0,999999,999999,999999,9999,44,3.22,4,4,9999,99999,9,999999999,999,0.999,0.0,99,0.2,0.0,0
2026,3,22,22,60,?9?9?9?9,-4.8,-7.2,83,99710,9999,9999,9999,0,0,0,999999,999999,999999,9999,39,2.77,8,8,9999,99999,9,999999999,999,0.999,0.0,99,0.2,0.0,0
2026,3,22,23,60,?9?9?9?9,-5.1,-7.3,85,99700,9999,9999,9999,0,0,0,999999,999999,999999,9999,29,2.87,10,10,9999,99999,9,999999999,999,0.999,0.0,99,0.2,0.0,0
2026,3,22,24,60,?9?9?9?9,-4.7,-7.1,84,99740,9999,9999,9999,0,0,0,999999,999999,999999,9999,25,2.21,9,9,9999,99999,9,999999999,999,0.999,0.0,99,0.2,0.0,0
2026,3,23,1,60,?9?9?9?9,-5.4,-7.2,87,99690,9999,9999,9999,0,0,0,999999,999999,999999,9999,14,3.04,9,9,9999,99999,9,999999999,999,0.999,0.0,99,0.2,0.0,0
2026,3,23,2,60,?9?9?9?9,-5.6,-7.5,86,99680,9999,9999,9999,0,0,0,999999,999999,999999,9999,11,3.0,2,2,9999,99999,9,999999999,999,0.999,0.0,99,0.2,0.0,0
2026,3,23,3,60,?9?9?9?9,-6.9,-8.8,87,99690,9999,9999,9999,0,0,0,999999,999999,999999,9999,6,2.92,2,2,9999,99999,9,999999999,999,0.999,0.0,99,0.2,0.0,0
2026,3,23,4,60,?9?9?9?9,-8.1,-9.9,87,99710,9999,9999,9999,0,0,0,999999,999999,999999,9999,1,3.1,4,4,9999,99999,9,999999999,999,0.999,0.0,99,0.2,0.0,0
2026,3,23,5,60,?9?9?9?9,-8.6,-10.4,87,99720,9999,9999,9999,0,0,0,999999,999999,999999,9999,357,3.71,8,8,9999,99999,9,999999999,999,0.999,0.0,99,0.2,0.0,0
2026,3,23,6,60,?9?9?9?9,-8.6,-10.6,85,99760,9999,9999,9999,0,0,0,999999,999999,999999,9999,354,3.92,10,10,9999,99999,9,999999999,999,0.999,0.0,99,0.2,0.0,0
2026,3,23,7,60,?9?9?9?9,-8.8,-11.0,84,99830,9999,9999,9999,0,0,0,999999,999999,999999,9999,351,4.04,10,10,9999,99999,9,999999999,999,0.999,0.0,99,0.2,0.0,0
2026,3,23,8,60,?9?9?9?9,-5.8,-9.1,77,99780,9999,9999,9999,56,136,40,999999,999999,999999,9999,356,3.71,10,10,9999,99999,9,999999999,999,0.999,0.0,99,0.2,0.0,0
2026,3,23,9,60,?9?9?9?9,-4.7,-9.0,72,99820,9999,9999,9999,159,109,128,999999,999999,999999,9999,353,3.07,10,10,9999,99999,9,999999999,999,0.999,0.0,99,0.2,0.0,0
2026,3,23,10,60,?9?9?9?9,-3.2,-8.8,66,99870,9999,9999,9999,282,78,248,999999,999999,999999,9999,9,3.24,10,10,9999,99999,9,999999999,999,0.999,0.0,99,0.2,0.0,0
2026,3,23,11,60,?9?9?9?9,-2.9,-8.1,67,99880,9999,9999,9999,252,20,241,999999,999999,999999,9999,33,3.18,10,10,9999,99999,9,999999999,999,0.999,0.001,99,0.2,0.1,1
2026,3,23,12,60,?9?9?9?9,-2.5,-7.0,71,99860,9999,9999,9999,237,8,232,999999,999999,999999,9999,45,3.75,10,10,9999,99999,9,999999999,999,0.999,0.001,99,0.2,0.1,1
2026,3,23,13,60,?9?9?9?9,-1.8,-6.1,72,99840,9999,9999,9999,270,10,263,999999,999999,999999,9999,44,3.64,10,10,9999,99999,9,999999999,999,0.999,0.001,99,0.2,0.2,1
2026,3,23,14,60,?9?9?9?9,-1.5,-5.4,75,99840,9999,9999,9999,234,12,226,999999,999999,999999,9999,48,3.54,10,10,9999,99999,9,999999999,999,0.999,0.002,99,0.2,0.3,1
2026,3,23,15,60,?9?9?9?9,-0.9,-5.2,73,99840,9999,9999,9999,250,11,243,999999,999999,999999,9999,55,2.91,10,10,9999,99999,9,999999999,999,0.999,0.001,99,0.2,0.2,1
2026,3,23,16,60,?9?9?9?9,-0.2,-5.2,69,99880,9999,9999,9999,363,104,305,999999,999999,999999,9999,69,2.41,10,10,9999,99999,9,999999999,999,0.999,0.001,99,0.2,0.1,1
2026,3,23,17,60,?9?9?9?9,-0.2,-4.8,71,99930,9999,9999,9999,287,133,230,999999,999999,999999,9999,68,1.73,10,10,9999,99999,9,999999999,999,0.999,0.001,99,0.2,0.1,1
2026,3,23,18,60,?9?9?9?9,-0.6,-4.7,74,99970,9999,9999,9999,148,62,131,999999,999999,999999,9999,108,1.0,10,10,9999,99999,9,999999999,999,0.999,0.001,99,0.2,0.1,1
2026,3,23,19,60,?9?9?9?9,-2.7,-5.5,81,100030,9999,9999,9999,40,27,37,999999,999999,999999,9999,167,1.13,10,10,9999,99999,9,999999999,999,0.999,0.013,99,0.2,1.7,1
2026,3,23,20,60,?9?9?9?9,-3.3,-5.8,83,100140,9999,9999,9999,0,0,0,999999,999999,999999,9999,315,0.14,10,10,9999,99999,9,999999999,999,0.999,0.013,99,0.2,1.9,1
2026,3,23,21,60,?9?9?9?9,-3.4,-5.3,86,100210,9999,9999,9999,0,0,0,999999,999999,999999,9999,354,0.45,10,10,9999,99999,9,999999999,999,0.999,0.001,99,0.2,0.1,1
2026,3,23,22,60,?9?9?9?9,-4.4,-6.0,89,100250,9999,9999,9999,0,0,0,999999,999999,999999,9999,354,0.45,8,8,9999,99999,9,999999999,999,0.999,0.0,99,0.2,0.0,0
2026,3,23,23,60,?9?9?9?9,-6.7,-7.9,91,100280,9999,9999,9999,0,0,0,999999,999999,999999,9999,323,0.75,1,1,9999,99999,9,999999999,999,0.999,0.0,99,0.2,0.0,0
2026,3,23,24,60,?9?9?9?9,-7.2,-9.4,85,100350,9999,9999,9999,0,0,0,999999,999999,999999,9999,329,2.8,0,0,9999,99999,9,999999999,999,0.999,0.0,99,0.2,0.0,0
2026,3,24,1,60,?9?9?9?9,-7.2,-9.8,82,100390,9999,9999,9999,0,0,0,999999,999999,999999,9999,344,3.59,0,0,9999,99999,9,999999999,999,0.999,0.0,99,0.2,0.0,0
2026,3,24,2,60,?9?9?9?9,-7.2,-9.4,84,100440,9999,9999,9999,0,0,0,999999,999999,999999,9999,337,3.65,0,0,9999,99999,9,999999999,999,0.999,0.0,99,0.2,0.0,0
2026,3,24,3,60,?9?9?9?9,-7.4,-10.6,78,100460,9999,9999,9999,0,0,0,999999,999999,999999,9999,334,4.45,0,0,9999,99999,9,999999999,999,0.999,0.0,99,0.2,0.0,0
2026,3,24,4,60,?9?9?9?9,-8.0,-11.9,74,100520,9999,9999,9999,0,0,0,999999,999999,999999,9999,334,4.72,0,0,9999,99999,9,999999999,999,0.999,0.0,99,0.2,0.0,0
2026,3,24,5,60,?9?9?9?9,-8.8,-12.8,73,100560,9999,9999,9999,0,0,0,999999,999999,999999,9999,334,4.52,0,0,9999,99999,9,999999999,999,0.999,0.0,99,0.2,0.0,0
2026,3,24,6,60,?9?9?9?9,-9.6,-13.6,73,100610,9999,9999,9999,0,0,0,999999,999999,999999,9999,332,4.25,0,0,9999,99999,9,999999999,999,0.999,0.0,99,0.2,0.0,0
2026,3,24,7,60,?9?9?9?9,-10.3,-14.2,73,100680,9999,9999,9999,1,0,1,999999,999999,999999,9999,330,4.06,0,0,9999,99999,9,999999999,999,0.999,0.0,99,0.2,0.0,0
2026,3,24,8,60,?9?9?9?9,-8.9,-13.8,68,100740,9999,9999,9999,88,455,33,999999,999999,999999,9999,327,3.87,0,0,9999,99999,9,999999999,999,0.999,0.0,99,0.2,0.0,0
2026,3,24,9,60,?9?9?9?9,-6.5,-13.1,59,100730,9999,9999,9999,274,706,70,999999,999999,999999,9999,325,2.19,0,0,9999,99999,9,999999999,999,0.999,0.0,99,0.2,0.0,0
2026,3,24,10,60,?9?9?9?9,-3.5,-13.1,48,100750,9999,9999,9999,464,842,91,999999,999999,999999,9999,324,1.61,0,0,9999,99999,9,999999999,999,0.999,0.0,99,0.2,0.0,0
2026,3,24,11,60,?9?9?9?9,-1.1,-13.1,40,100700,9999,9999,9999,625,913,106,999999,999999,999999,9999,203,1.14,4,4,9999,99999,9,999999999,999,0.999,0.0,99,0.2,0.0,0
2026,3,24,12,60,?9?9?9?9,-1.6,-10.8,50,100620,9999,9999,9999,739,952,114,999999,999999,999999,9999,188,3.94,10,10,9999,99999,9,999999999,999,0.999,0.0,99,0.2,0.0,0
2026,3,24,13,60,?9?9?9?9,-1.8,-11.8,47,100540,9999,9999,9999,772,825,194,999999,999999,999999,9999,190,4.22,10,10,9999,99999,9,999999999,999,0.999,0.0,99,0.2,0.0,0
2026,3,24,14,60,?9?9?9?9,-1.4,-10.8,49,100410,9999,9999,9999,700,497,353,999999,999999,999999,9999,191,4.63,10,10,9999,99999,9,999999999,999,0.999,0.0,99,0.2,0.0,0
2026,3,24,15,60,?9?9?9?9,-0.5,-9.1,52,100360,9999,9999,9999,623,430,343,999999,999999,999999,9999,196,5.0,10,10,9999,99999,9,999999999,999,0.999,0.0,99,0.2,0.0,0
2026,3,24,16,60,?9?9?9?9,-0.4,-8.8,53,100280,9999,9999,9999,511,397,289,999999,999999,999999,9999,198,5.63,10,10,9999,99999,9,999999999,999,0.999,0.0,99,0.2,0.0,0
2026,3,24,17,60,?9?9?9?9,-0.9,-8.6,56,100210,9999,9999,9999,310,194,226,999999,999999,999999,9999,200,5.16,10,10,9999,99999,9,999999999,999,0.999,0.0,99,0.2,0.0,0
2026,3,24,18,60,?9?9?9?9,-1.2,-8.6,57,100170,9999,9999,9999,126,11,123,999999,999999,999999,9999,208,5.55,10,10,9999,99999,9,999999999,999,0.999,0.0,99,0.2,0.0,0
2026,3,24,19,60,?9?9?9?9,-1.6,-8.6,59,100190,9999,9999,9999,34,18,32,999999,999999,999999,9999,223,4.95,10,10,9999,99999,9,999999999,999,0.999,0.0,99,0.2,0.0,0
2026,3,24,20,60,?9?9?9?9,-2.1,-8.6,61,100200,9999,9999,9999,0,0,0,999999,999999,999999,9999,235,3.84,10,10,9999,99999,9,999999999,999,0.999,0.0,99,0.2,0.0,0
2026,3,24,21,60,?9?9?9?9,-2.8,-8.1,67,100200,9999,9999,9999,0,0,0,999999,999999,999999,9999,238,3.52,6,6,9999,99999,9,999999999,999,0.999,0.0,99,0.2,0.0,0
2026,3,24,22,60,?9?9?9?9,-4.2,-7.8,76,100200,9999,9999,9999,0,0,0,999999,999999,999999,9999,240,3.22,1,1,9999,99999,9,999999999,999,0.999,0.0,99,0.2,0.0,0
2026,3,24,23,60,?9?9?9?9,-5.8,-7.9,85,100160,9999,9999,9999,0,0,0,999999,999999,999999,9999,241,3.16,0,0,9999,99999,9,999999999,999,0.999,0.0,99,0.2,0.0,0
2026,3,24,24,60,?9?9?9?9,-6.2,-8.2,86,100130,9999,9999,9999,0,0,0,999999,999999,999999,9999,250,3.24,2,2,9999,99999,9,999999999,999,0.999,0.0,99,0.2,0.0,0
2026,3,25,1,60,?9?9?9?9,-6.5,-8.4,86,100140,9999,9999,9999,0,0,0,999999,999999,999999,9999,254,3.18,4,4,9999,99999,9,999999999,999,0.999,0.0,99,0.2,0.0,0
2026,3,25,2,60,?9?9?9?9,-5.0,-8.4,77,100190,9999,9999,9999,0,0,0,999999,999999,999999,9999,279,3.65,1,1,9999,99999,9,999999999,999,0.999,0.0,99,0.2,0.0,0
2026,3,25,3,60,?9?9?9?9,-5.1,-7.8,81,100240,9999,9999,9999,0,0,0,999999,999999,999999,9999,306,4.12,0,0,9999,99999,9,999999999,999,0.999,0.0,99,0.2,0.0,0
2026,3,25,4,60,?9?9?9?9,-6.9,-10.8,74,100370,9999,9999,9999,0,0,0,999999,999999,999999,9999,320,4.9,1,1,9999,99999,9,999999999,999,0.999,0.0,99,0.2,0.0,0
2026,3,25,5,60,?9?9?9?9,-9.6,-12.8,77,100470,9999,9999,9999,0,0,0,999999,999999,999999,9999,327,4.77,0,0,9999,99999,9,999999999,999,0.999,0.0,99,0.2,0.0,0
2026,3,25,6,60,?9?9?9?9,-11.2,-15.2,72,100590,9999,9999,9999,0,0,0,999999,999999,999999,9999,336,5.1,0,0,9999,99999,9,999999999,999,0.999,0.0,99,0.2,0.0,0
2026,3,25,7,60,?9?9?9?9,-13.3,-17.3,72,100700,9999,9999,9999,1,0,1,999999,999999,999999,9999,341,3.86,2,2,9999,99999,9,999999999,999,0.999,0.0,99,0.2,0.0,0
2026,3,25,8,60,?9?9?9?9,-13.7,-18.5,67,100920,9999,9999,9999,92,444,37,999999,999999,999999,9999,336,2.19,10,10,9999,99999,9,999999999,999,0.999,0.0,99,0.2,0.0,0
2026,3,25,9,60,?9?9?9?9,-12.8,-19.3,58,100960,9999,9999,9999,227,275,146,999999,999999,999999,9999,330,2.2,10,10,9999,99999,9,999999999,999,0.999,0.0,99,0.2,0.0,0
2026,3,25,10,60,?9?9?9?9,-11.6,-19.9,50,101020,9999,9999,9999,384,350,227,999999,999999,999999,9999,309,2.13,10,10,9999,99999,9,999999999,999,0.999,0.0,99,0.2,0.0,0
2026,3,25,11,60,?9?9?9?9,-9.9,-19.8,44,101040,9999,9999,9999,567,577,236,999999,999999,999999,9999,282,1.69,10,10,9999,99999,9,999999999,999,0.999,0.0,99,0.2,0.0,0
2026,3,25,12,60,?9?9?9?9,-8.4,-19.8,39,100970,9999,9999,9999,573,281,387,999999,999999,999999,9999,288,1.26,10,10,9999,99999,9,999999999,999,0.999,0.0,99,0.2,0.0,0
2026,3,25,13,60,?9?9?9?9,-6.8,-19.5,36,100870,9999,9999,9999,636,309,418,999999,999999,999999,9999,258,0.97,10,10,9999,99999,9,999999999,999,0.999,0.0,99,0.2,0.0,0
2026,3,25,14,60,?9?9?9?9,-5.4,-19.6,32,100750,9999,9999,9999,666,402,383,999999,999999,999999,9999,221,0.92,10,10,9999,99999,9,999999999,999,0.999,0.0,99,0.2,0.0,0
2026,3,25,15,60,?9?9?9?9,-4.4,-18.1,33,100670,9999,9999,9999,642,517,303,999999,999999,999999,9999,183,1.1,10,10,9999,99999,9,999999999,999,0.999,0.0,99,0.2,0.0,0
2026,3,25,16,60,?9?9?9?9,-4.6,-16.4,39,100580,9999,9999,9999,501,335,312,999999,999999,999999,9999,170,1.93,10,10,9999,99999,9,999999999,999,0.999,0.0,99,0.2,0.0,0
2026,3,25,17,60,?9?9?9?9,-5.3,-14.6,48,100500,9999,9999,9999,356,305,223,999999,999999,999999,9999,160,2.23,10,10,9999,99999,9,999999999,999,0.999,0.0,99,0.2,0.0,0
2026,3,25,18,60,?9?9?9?9,-6.2,-14.3,53,100430,9999,9999,9999,165,68,146,999999,999999,999999,9999,135,1.7,10,10,9999,99999,9,999999999,999,0.999,0.0,99,0.2,0.0,0
2026,3,25,19,60,?9?9?9?9,-7.2,-12.9,64,100360,9999,9999,9999,28,0,28,999999,999999,999999,9999,109,1.53,10,10,9999,99999,9,999999999,999,0.999,0.0,99,0.2,0.0,0
2026,3,25,20,60,?9?9?9?9,-7.6,-12.5,68,100300,9999,9999,9999,0,0,0,999999,999999,999999,9999,78,1.99,10,10,9999,99999,9,999999999,999,0.999,0.0,99,0.2,0.0,0
2026,3,25,21,60,?9?9?9?9,-7.7,-12.0,71,100240,9999,9999,9999,0,0,0,999999,999999,999999,9999,80,1.93,10,10,9999,99999,9,999999999,999,0.999,0.001,99,0.2,0.1,1
2026,3,25,22,60,?9?9?9?9,-8.1,-12.1,73,100130,9999,9999,9999,0,0,0,999999,999999,999999,9999,67,2.17,10,10,9999,99999,9,999999999,999,0.999,0.001,99,0.2,0.2,1
2026,3,25,23,60,?9?9?9?9,-8.1,-11.9,74,100000,9999,9999,9999,0,0,0,999999,999999,999999,9999,64,2.28,10,10,9999,99999,9,999999999,999,0.999,0.003,99,0.2,0.5,1
2026,3,25,24,60,?9?9?9?9,-7.9,-11.4,76,99860,9999,9999,9999,0,0,0,999999,999999,999999,9999,56,2.7,10,10,9999,99999,9,999999999,999,0.999,0.003,99,0.2,0.4,1
2026,3,26,1,60,?9?9?9?9,-8.0,-11.2,77,99700,9999,9999,9999,0,0,0,999999,999999,999999,9999,60,2.89,10,10,9999,99999,9,999999999,999,0.999,0.001,99,0.2,0.2,1
2026,3,26,2,60,?9?9?9?9,-7.3,-10.2,79,99580,9999,9999,9999,0,0,0,999999,999999,999999,9999,60,2.53,10,10,9999,99999,9,999999999,999,0.999,0.001,99,0.2,0.2,1
2026,3,26,3,60,?9?9?9?9,-7.1,-9.6,83,99440,9999,9999,9999,0,0,0,999999,999999,999999,9999,59,2.22,10,10,9999,99999,9,999999999,999,0.999,0.001,99,0.2,0.1,1
2026,3,26,4,60,?9?9?9?9,-6.9,-8.9,86,99300,9999,9999,9999,0,0,0,999999,999999,999999,9999,53,1.5,10,10,9999,99999,9,999999999,999,0.999,0.0,99,0.2,0.0,0
2026,3,26,5,60,?9?9?9?9,-6.7,-8.2,89,99220,9999,9999,9999,0,0,0,999999,999999,999999,9999,49,1.45,10,10,9999,99999,9,999999999,999,0.999,0.001,99,0.2,0.1,1
2026,3,26,6,60,?9?9?9?9,-6.5,-7.7,92,99170,9999,9999,9999,0,0,0,999999,999999,999999,9999,63,1.45,10,10,9999,99999,9,999999999,999,0.999,0.001,99,0.2,0.1,1
2026,3,26,7,60,?9?9?9?9,-6.1,-7.2,92,99100,9999,9999,9999,0,0,0,999999,999999,999999,9999,23,2.22,10,10,9999,99999,9,999999999,999,0.999,0.004,99,0.2,0.6,1
2026,3,26,8,60,?9?9?9?9,-5.8,-7.1,91,99030,9999,9999,9999,15,0,15,999999,999999,999999,9999,39,2.06,10,10,9999,99999,9,999999999,999,0.999,0.003,99,0.2,0.5,1
2026,3,26,9,60,?9?9?9?9,-4.3,-6.1,88,99010,9999,9999,9999,79,0,79,999999,999999,999999,9999,50,1.49,10,10,9999,99999,9,999999999,999,0.999,0.0,99,0.2,0.0,0
2026,3,26,10,60,?9?9?9?9,-2.7,-5.2,83,98970,9999,9999,9999,181,11,176,999999,999999,999999,9999,58,1.23,9,9,9999,99999,9,999999999,999,0.999,0.0,99,0.2,0.0,0
2026,3,26,11,60,?9?9?9?9,0.1,-3.6,76,98850,9999,9999,9999,460,347,259,999999,999999,999999,9999,80,1.42,9,9,9999,99999,9,999999999,999,0.999,0.0,99,0.2,0.0,0
2026,3,26,12,60,?9?9?9?9,2.2,-2.7,70,98800,9999,9999,9999,690,705,220,999999,999999,999999,9999,111,1.12,10,10,9999,99999,9,999999999,999,0.999,0.0,99,0.2,0.0,0
2026,3,26,13,60,?9?9?9?9,3.1,-2.2,68,98740,9999,9999,9999,581,252,402,999999,999999,999999,9999,128,0.82,10,10,9999,99999,9,999999999,999,0.999,0.0,99,0.2,0.0,0
2026,3,26,14,60,?9?9?9?9,3.2,-1.8,70,98740,9999,9999,9999,618,342,376,999999,999999,999999,9999,270,0.2,10,10,9999,99999,9,999999999,999,0.999,0.0,99,0.2,0.0,0
2026,3,26,15,60,?9?9?9?9,3.0,-2.0,70,98690,9999,9999,9999,231,4,228,999999,999999,999999,9999,168,1.18,10,10,9999,99999,9,999999999,999,0.999,0.0,99,0.2,0.1,1
2026,3,26,16,60,?9?9?9?9,2.0,-1.5,78,98670,9999,9999,9999,319,86,270,999999,999999,999999,9999,166,2.73,10,10,9999,99999,9,999999999,999,0.999,0.0,99,0.2,0.1,1
2026,3,26,17,60,?9?9?9?9,0.8,-1.2,87,98660,9999,9999,9999,128,2,127,999999,999999,999999,9999,176,2.16,10,10,9999,99999,9,999999999,999,0.999,0.001,99,0.2,0.1,1
2026,3,26,18,60,?9?9?9?9,0.3,-1.0,91,98650,9999,9999,9999,51,0,51,999999,999999,999999,9999,180,1.85,10,10,9999,99999,9,999999999,999,0.999,0.001,99,0.2,0.2,1
2026,3,26,19,60,?9?9?9?9,0.0,-0.8,94,98680,9999,9999,9999,13,0,13,999999,999999,999999,9999,264,0.45,10,10,9999,99999,9,999999999,999,0.999,0.001,99,0.2,0.2,1
2026,3,26,20,60,?9?9?9?9,0.3,-0.6,94,98710,9999,9999,9999,0,0,0,999999,999999,999999,9999,2,2.4,10,10,9999,99999,9,999999999,999,0.999,0.001,99,0.2,0.1,1
2026,3,26,21,60,?9?9?9?9,0.4,-0.8,92,98740,9999,9999,9999,0,0,0,999999,999999,999999,9999,360,2.65,10,10,9999,99999,9,999999999,999,0.999,0.001,99,0.2,0.1,1
2026,3,26,22,60,?9?9?9?9,0.2,-2.0,85,98840,9999,9999,9999,0,0,0,999999,999999,999999,9999,347,4.41,10,10,9999,99999,9,999999999,999,0.999,0.0,99,0.2,0.0,0
2026,3,26,23,60,?9?9?9?9,-1.2,-5.0,76,98920,9999,9999,9999,0,0,0,999999,999999,999999,9999,341,6.07,10,10,9999,99999,9,999999999,999,0.999,0.0,99,0.2,0.0,0
2026,3,26,24,60,?9?9?9?9,-2.7,-6.7,74,98970,9999,9999,9999,0,0,0,999999,999999,999999,9999,344,6.08,7,7,9999,99999,9,999999999,999,0.999,0.0,99,0.2,0.0,0
2026,3,27,1,60,?9?9?9?9,-4.2,-8.6,71,99060,9999,9999,9999,0,0,0,999999,999999,999999,9999,346,6.03,2,2,9999,99999,9,999999999,999,0.999,0.0,99,0.2,0.0,0
2026,3,27,2,60,?9?9?9?9,-6.3,-10.6,72,99190,9999,9999,9999,0,0,0,999999,999999,999999,9999,347,6.0,0,0,9999,99999,9,999999999,999,0.999,0.0,99,0.2,0.0,0
2026,3,27,3,60,?9?9?9?9,-8.3,-12.5,72,99320,9999,9999,9999,0,0,0,999999,999999,999999,9999,343,6.33,0,0,9999,99999,9,999999999,999,0.999,0.0,99,0.2,0.0,0
2026,3,27,4,60,?9?9?9?9,-10.3,-14.4,72,99470,9999,9999,9999,0,0,0,999999,999999,999999,9999,341,7.04,0,0,9999,99999,9,999999999,999,0.999,0.0,99,0.2,0.0,0
2026,3,27,5,60,?9?9?9?9,-12.4,-16.7,70,99630,9999,9999,9999,0,0,0,999999,999999,999999,9999,340,6.77,0,0,9999,99999,9,999999999,999,0.999,0.0,99,0.2,0.0,0
2026,3,27,6,60,?9?9?9?9,-14.2,-18.5,70,99810,9999,9999,9999,0,0,0,999999,999999,999999,9999,339,6.05,0,0,9999,99999,9,999999999,999,0.999,0.0,99,0.2,0.0,0
2026,3,27,7,60,?9?9?9?9,-15.7,-20.1,69,99970,9999,9999,9999,3,25,2,999999,999999,999999,9999,339,6.2,0,0,9999,99999,9,999999999,999,0.999,0.0,99,0.2,0.0,0
2026,3,27,8,60,?9?9?9?9,-14.7,-20.1,63,100230,9999,9999,9999,107,508,39,999999,999999,999999,9999,340,5.71,0,0,9999,99999,9,999999999,999,0.999,0.0,99,0.2,0.0,0
2026,3,27,9,60,?9?9?9?9,-14.1,-21.0,56,100340,9999,9999,9999,298,732,74,999999,999999,999999,9999,335,5.28,0,0,9999,99999,9,999999999,999,0.999,0.0,99,0.2,0.0,0
2026,3,27,10,60,?9?9?9?9,-12.9,-21.5,49,100400,9999,9999,9999,489,857,95,999999,999999,999999,9999,333,4.72,0,0,9999,99999,9,999999999,999,0.999,0.0,99,0.2,0.0,0
2026,3,27,11,60,?9?9?9?9,-11.6,-21.1,45,100440,9999,9999,9999,650,924,110,999999,999999,999999,9999,327,4.23,0,0,9999,99999,9,999999999,999,0.999,0.0,99,0.2,0.0,0
2026,3,27,12,60,?9?9?9?9,-10.2,-20.7,42,100440,9999,9999,9999,764,962,118,999999,999999,999999,9999,322,3.85,0,0,9999,99999,9,999999999,999,0.999,0.0,99,0.2,0.0,0
2026,3,27,13,60,?9?9?9?9,-8.9,-20.3,39,100450,9999,9999,9999,821,977,122,999999,999999,999999,9999,318,3.72,0,0,9999,99999,9,999999999,999,0.999,0.0,99,0.2,0.0,0
2026,3,27,14,60,?9?9?9?9,-7.1,-19.3,37,100420,9999,9999,9999,817,976,121,999999,999999,999999,9999,315,4.03,0,0,9999,99999,9,999999999,999,0.999,0.0,99,0.2,0.0,0
2026,3,27,15,60,?9?9?9?9,-6.7,-19.1,37,100370,9999,9999,9999,750,955,116,999999,999999,999999,9999,320,3.87,2,2,9999,99999,9,999999999,999,0.999,0.0,99,0.2,0.0,0
2026,3,27,16,60,?9?9?9?9,-6.7,-19.0,37,100280,9999,9999,9999,630,912,108,999999,999999,999999,9999,327,3.83,7,7,9999,99999,9,999999999,999,0.999,0.0,99,0.2,0.0,0
2026,3,27,17,60,?9?9?9?9,-6.9,-19.1,37,100270,9999,9999,9999,458,788,108,999999,999999,999999,9999,328,3.7,10,10,9999,99999,9,999999999,999,0.999,0.0,99,0.2,0.0,0
2026,3,27,18,60,?9?9?9?9,-7.7,-18.5,42,100340,9999,9999,9999,237,382,127,999999,999999,999999,9999,325,3.16,9,9,9999,99999,9,999999999,999,0.999,0.0,99,0.2,0.0,0
2026,3,27,19,60,?9?9?9?9,-9.6,-17.7,52,100440,9999,9999,9999,74,200,50,999999,999999,999999,9999,322,2.03,7,7,9999,99999,9,999999999,999,0.999,0.0,99,0.2,0.0,0
2026,3,27,20,60,?9?9?9?9,-11.3,-17.6,59,100490,9999,9999,9999,1,0,1,999999,999999,999999,9999,335,2.53,10,10,9999,99999,9,999999999,999,0.999,0.0,99,0.2,0.0,0
2026,3,27,21,60,?9?9?9?9,-11.7,-17.2,64,100580,9999,9999,9999,0,0,0,999999,999999,999999,9999,352,2.88,10,10,9999,99999,9,999999999,999,0.999,0.0,99,0.2,0.0,0
2026,3,27,22,60,?9?9?9?9,-11.6,-17.1,64,100660,9999,9999,9999,0,0,0,999999,999999,999999,9999,358,3.7,10,10,9999,99999,9,999999999,999,0.999,0.0,99,0.2,0.0,0
2026,3,27,23,60,?9?9?9?9,-12.1,-18.3,60,100700,9999,9999,9999,0,0,0,999999,999999,999999,9999,358,4.15,10,10,9999,99999,9,999999999,999,0.999,0.0,99,0.2,0.0,0
2026,3,27,24,60,?9?9?9?9,-13.4,-19.0,62,100760,9999,9999,9999,0,0,0,999999,999999,999999,9999,360,3.2,5,5,9999,99999,9,999999999,999,0.999,0.0,99,0.2,0.0,0
2026,3,28,1,60,?9?9?9?9,-14.6,-19.4,67,100760,9999,9999,9999,0,0,0,999999,999999,999999,9999,1,2.8,5,5,9999,99999,9,999999999,999,0.999,0.0,99,0.2,0.0,0
2026,3,28,2,60,?9?9?9?9,-15.2,-19.6,69,100790,9999,9999,9999,0,0,0,999999,999999,999999,9999,7,2.77,5,5,9999,99999,9,999999999,999,0.999,0.0,99,0.2,0.0,0
2026,3,28,3,60,?9?9?9?9,-16.8,-20.5,73,100780,9999,9999,9999,0,0,0,999999,999999,999999,9999,5,1.76,4,4,9999,99999,9,999999999,999,0.999,0.0,99,0.2,0.0,0
2026,3,28,4,60,?9?9?9?9,-18.4,-22.1,73,100770,9999,9999,9999,0,0,0,999999,999999,999999,9999,6,1.51,3,3,9999,99999,9,999999999,999,0.999,0.0,99,0.2,0.0,0
2026,3,28,5,60,?9?9?9?9,-19.2,-22.8,74,100800,9999,9999,9999,0,0,0,999999,999999,999999,9999,360,0.8,3,3,9999,99999,9,999999999,999,0.999,0.0,99,0.2,0.0,0
2026,3,28,6,60,?9?9?9?9,-20.1,-23.5,75,100850,9999,9999,9999,0,0,0,999999,999999,999999,9999,328,0.47,9,9,9999,99999,9,999999999,999,0.999,0.0,99,0.2,0.0,0
2026,3,28,7,60,?9?9?9?9,-20.5,-23.9,74,100860,9999,9999,9999,3,23,2,999999,999999,999999,9999,333,0.11,8,8,9999,99999,9,999999999,999,0.999,0.0,99,0.2,0.0,0
2026,3,28,8,60,?9?9?9?9,-17.8,-22.4,68,100940,9999,9999,9999,99,336,52,999999,999999,999999,9999,266,0.7,2,2,9999,99999,9,999999999,999,0.999,0.0,99,0.2,0.0,0
2026,3,28,9,60,?9?9?9?9,-13.4,-21.4,51,101010,9999,9999,9999,291,654,87,999999,999999,999999,9999,191,1.27,8,8,9999,99999,9,999999999,999,0.999,0.0,99,0.2,0.0,0
2026,3,28,10,60,?9?9?9?9,-11.4,-20.3,48,101040,9999,9999,9999,462,673,149,999999,999999,999999,9999,192,2.2,10,10,9999,99999,9,999999999,999,0.999,0.0,99,0.2,0.0,0
2026,3,28,11,60,?9?9?9?9,-10.1,-18.8,49,101020,9999,9999,9999,481,290,310,999999,999999,999999,9999,194,2.78,10,10,9999,99999,9,999999999,999,0.999,0.001,99,0.2,0.1,1
2026,3,28,12,60,?9?9?9?9,-8.5,-17.2,49,100960,9999,9999,9999,621,386,360,999999,999999,999999,9999,195,3.37,10,10,9999,99999,9,999999999,999,0.999,0.001,99,0.2,0.1,1
2026,3,28,13,60,?9?9?9?9,-7.2,-15.5,52,100860,9999,9999,9999,674,362,413,999999,999999,999999,9999,199,3.75,7,7,9999,99999,9,999999999,999,0.999,0.001,99,0.2,0.0,0
2026,3,28,14,60,?9?9?9?9,-6.2,-13.6,56,100790,9999,9999,9999,677,507,313,999999,999999,999999,9999,217,4.79,10,10,9999,99999,9,999999999,999,0.999,0.0,99,0.2,0.0,0
2026,3,28,15,60,?9?9?9?9,-5.1,-12.7,55,100710,9999,9999,9999,615,438,322,999999,999999,999999,9999,219,4.73,10,10,9999,99999,9,999999999,999,0.999,0.001,99,0.2,0.1,1
2026,3,28,16,60,?9?9?9?9,-3.5,-14.1,44,100640,9999,9999,9999,459,218,333,999999,999999,999999,9999,227,4.0,9,9,9999,99999,9,999999999,999,0.999,0.001,99,0.2,0.1,1
2026,3,28,17,60,?9?9?9?9,-2.5,-15.6,36,100570,9999,9999,9999,348,274,225,999999,999999,999999,9999,250,4.05,8,8,9999,99999,9,999999999,999,0.999,0.001,99,0.2,0.1,1
2026,3,28,18,60,?9?9?9?9,-2.9,-13.8,43,100550,9999,9999,9999,211,240,141,999999,999999,999999,9999,248,2.76,8,8,9999,99999,9,999999999,999,0.999,0.0,99,0.2,0.0,0
2026,3,28,19,60,?9?9?9?9,-5.9,-13.2,56,100510,9999,9999,9999,80,295,44,999999,999999,999999,9999,233,1.93,0,0,9999,99999,9,999999999,999,0.999,0.0,99,0.2,0.0,0
2026,3,28,20,60,?9?9?9?9,-8.2,-12.9,69,100620,9999,9999,9999,1,0,1,999999,999999,999999,9999,246,2.69,2,2,9999,99999,9,999999999,999,0.999,0.0,99,0.2,0.0,0
2026,3,28,21,60,?9?9?9?9,-8.8,-12.9,72,100700,9999,9999,9999,0,0,0,999999,999999,999999,9999,256,2.98,1,1,9999,99999,9,999999999,999,0.999,0.0,99,0.2,0.0,0
2026,3,28,22,60,?9?9?9?9,-9.5,-13.4,73,100740,9999,9999,9999,0,0,0,999999,999999,999999,9999,266,2.91,2,2,9999,99999,9,999999999,999,0.999,0.0,99,0.2,0.0,0
2026,3,28,23,60,?9?9?9?9,-10.1,-14.1,73,100760,9999,9999,9999,0,0,0,999999,999999,999999,9999,269,2.6,2,2,9999,99999,9,999999999,999,0.999,0.0,99,0.2,0.0,0
2026,3,28,24,60,?9?9?9?9,-10.9,-14.9,72,100740,9999,9999,9999,0,0,0,999999,999999,999999,9999,254,2.6,3,3,9999,99999,9,999999999,999,0.999,0.0,99,0.2,0.0,0
2026,3,29,1,60,?9?9?9?9,-10.9,-15.1,71,100700,9999,9999,9999,0,0,0,999999,999999,999999,9999,258,3.02,3,3,9999,99999,9,999999999,999,0.999,0.0,99,0.2,0.0,0
2026,3,29,2,60,?9?9?9?9,-10.1,-14.2,72,100710,9999,9999,9999,0,0,0,999999,999999,999999,9999,250,3.13,2,2,9999,99999,9,999999999,999,0.999,0.0,99,0.2,0.0,0
2026,3,29,3,60,?9?9?9?9,-10.6,-14.4,73,100730,9999,9999,9999,0,0,0,999999,999999,999999,9999,253,2.82,2,2,9999,99999,9,999999999,999,0.999,0.0,99,0.2,0.0,0
2026,3,29,4,60,?9?9?9?9,-11.0,-14.8,74,100740,9999,9999,9999,0,0,0,999999,999999,999999,9999,260,2.84,8,8,9999,99999,9,999999999,999,0.999,0.0,99,0.2,0.0,0
2026,3,29,5,60,?9?9?9?9,-10.2,-14.1,73,100750,9999,9999,9999,0,0,0,999999,999999,999999,9999,260,2.69,5,5,9999,99999,9,999999999,999,0.999,0.002,99,0.2,0.3,1
2026,3,29,6,60,?9?9?9?9,-9.0,-12.2,78,100760,9999,9999,9999,0,0,0,999999,999999,999999,9999,242,2.71,9,9,9999,99999,9,999999999,999,0.999,0.0,99,0.2,0.0,0
2026,3,29,7,60,?9?9?9?9,-8.2,-10.9,82,100780,9999,9999,9999,3,0,3,999999,999999,999999,9999,238,3.05,3,3,9999,99999,9,999999999,999,0.999,0.0,99,0.2,0.0,0
2026,3,29,8,60,?9?9?9?9,-6.8,-9.8,80,100840,9999,9999,9999,98,296,55,999999,999999,999999,9999,238,3.19,10,10,9999,99999,9,999999999,999,0.999,0.0,99,0.2,0.0,0
2026,3,29,9,60,?9?9?9?9,-4.6,-8.6,74,100880,9999,9999,9999,175,44,161,999999,999999,999999,9999,230,3.05,10,10,9999,99999,9,999999999,999,0.999,0.0,99,0.2,0.0,0
2026,3,29,10,60,?9?9?9?9,-2.5,-7.7,68,100850,9999,9999,9999,407,376,230,999999,999999,999999,9999,226,3.47,2,2,9999,99999,9,999999999,999,0.999,0.0,99,0.2,0.0,0
2026,3,29,11,60,?9?9?9?9,-0.8,-7.8,59,100790,9999,9999,9999,619,777,157,999999,999999,999999,9999,241,4.92,8,8,9999,99999,9,999999999,999,0.999,0.0,99,0.2,0.0,0
2026,3,29,12,60,?9?9?9?9,0.1,-6.8,60,100740,9999,9999,9999,661,532,298,999999,999999,999999,9999,229,5.0,10,10,9999,99999,9,999999999,999,0.999,0.0,99,0.2,0.0,0
2026,3,29,13,60,?9?9?9?9,0.6,-6.0,61,100660,9999,9999,9999,566,211,413,999999,999999,999999,9999,224,5.48,10,10,9999,99999,9,999999999,999,0.999,0.0,99,0.2,0.0,0
2026,3,29,14,60,?9?9?9?9,0.7,-5.0,66,100600,9999,9999,9999,424,60,381,999999,999999,999999,9999,224,5.34,10,10,9999,99999,9,999999999,999,0.999,0.0,99,0.2,0.0,0
2026,3,29,15,60,?9?9?9?9,2.1,-4.8,61,100520,9999,9999,9999,323,22,308,999999,999999,999999,9999,225,5.37,10,10,9999,99999,9,999999999,999,0.999,0.0,99,0.2,0.0,0
2026,3,29,16,60,?9?9?9?9,2.0,-3.2,68,100490,9999,9999,9999,217,41,193,999999,999999,999999,9999,214,4.72,10,10,9999,99999,9,999999999,999,0.999,0.003,99,0.2,0.5,1
2026,3,29,17,60,?9?9?9?9,1.8,-2.0,76,100470,9999,9999,9999,144,0,144,999999,999999,999999,9999,203,4.23,10,10,9999,99999,9,999999999,999,0.999,0.0,99,0.2,0.0,0
2026,3,29,18,60,?9?9?9?9,1.6,-1.6,79,100440,9999,9999,9999,87,0,87,999999,999999,999999,9999,202,3.41,10,10,9999,99999,9,999999999,999,0.999,0.0,99,0.2,0.0,0
2026,3,29,19,60,?9?9?9?9,1.4,-1.7,80,100420,9999,9999,9999,43,40,38,999999,999999,999999,9999,200,2.39,10,10,9999,99999,9,999999999,999,0.999,0.0,99,0.2,0.0,0
2026,3,29,20,60,?9?9?9?9,-0.6,-2.7,85,100390,9999,9999,9999,1,0,1,999999,999999,999999,9999,184,2.45,3,3,9999,99999,9,999999999,999,0.999,0.0,99,0.2,0.0,0
2026,3,29,21,60,?9?9?9?9,-2.2,-4.5,84,100360,9999,9999,9999,0,0,0,999999,999999,999999,9999,187,2.07,6,6,9999,99999,9,999999999,999,0.999,0.0,99,0.2,0.0,0
2026,3,29,22,60,?9?9?9?9,-2.6,-4.8,85,100300,9999,9999,9999,0,0,0,999999,999999,999999,9999,185,2.86,8,8,9999,99999,9,999999999,999,0.999,0.0,99,0.2,0.0,0
2026,3,29,23,60,?9?9?9?9,-2.5,-4.8,84,100220,9999,9999,9999,0,0,0,999999,999999,999999,9999,203,2.67,9,9,9999,99999,9,999999999,999,0.999,0.0,99,0.2,0.0,0
2026,3,29,24,60,?9?9?9?9,-2.4,-4.7,85,100160,9999,9999,9999,0,0,0,999999,999999,999999,9999,204,3.02,10,10,9999,99999,9,999999999,999,0.999,0.0,99,0.2,0.0,0
2026,3,30,1,60,?9?9?9?9,-2.0,-4.2,85,100090,9999,9999,9999,0,0,0,999999,999999,999999,9999,207,3.26,10,10,9999,99999,9,999999999,999,0.999,0.0,99,0.2,0.0,0
2026,3,30,2,60,?9?9?9?9,-1.7,-3.8,85,100010,9999,9999,9999,0,0,0,999999,999999,999999,9999,210,3.05,10,10,9999,99999,9,999999999,999,0.999,0.0,99,0.2,0.0,0
2026,3,30,3,60,?9?9?9?9,-1.4,-3.6,85,99920,9999,9999,9999,0,0,0,999999,999999,999999,9999,213,2.97,10,10,9999,99999,9,999999999,999,0.999,0.0,99,0.2,0.0,0
2026,3,30,4,60,?9?9?9?9,-0.9,-3.3,84,99830,9999,9999,9999,0,0,0,999999,999999,999999,9999,208,2.84,10,10,9999,99999,9,999999999,999,0.999,0.0,99,0.2,0.0,0
2026,3,30,5,60,?9?9?9?9,-0.4,-2.8,84,99750,9999,9999,9999,0,0,0,999999,999999,999999,9999,208,2.73,10,10,9999,99999,9,999999999,999,0.999,0.001,99,0.2,0.1,1
2026,3,30,6,60,?9?9?9?9,-0.2,-2.3,86,99630,9999,9999,9999,0,0,0,999999,999999,999999,9999,202,2.53,10,10,9999,99999,9,999999999,999,0.999,0.002,99,0.2,0.3,1
2026,3,30,7,60,?9?9?9?9,-0.1,-2.2,85,99580,9999,9999,9999,1,0,1,999999,999999,999999,9999,212,2.18,10,10,9999,99999,9,999999999,999,0.999,0.001,99,0.2,0.2,1
2026,3,30,8,60,?9?9?9?9,0.6,-2.4,80,99460,9999,9999,9999,25,0,25,999999,999999,999999,9999,192,2.56,10,10,9999,99999,9,999999999,999,0.999,0.0,99,0.2,0.0,0
2026,3,30,9,60,?9?9?9?9,2.2,-2.5,71,99400,9999,9999,9999,224,331,117,999999,999999,999999,9999,188,1.72,10,10,9999,99999,9,999999999,999,0.999,0.0,99,0.2,0.0,0
2026,3,30,10,60,?9?9?9?9,3.3,-2.5,66,99320,9999,9999,9999,281,120,224,999999,999999,999999,9999,194,2.43,10,10,9999,99999,9,999999999,999,0.999,0.0,99,0.2,0.0,0
2026,3,30,11,60,?9?9?9?9,4.6,-2.3,61,99220,9999,9999,9999,332,172,229,999999,999999,999999,9999,198,2.69,8,8,9999,99999,9,999999999,999,0.999,0.0,99,0.2,0.0,0
2026,3,30,12,60,?9?9?9?9,7.0,-2.2,52,99130,9999,9999,9999,615,393,345,999999,999999,999999,9999,203,3.7,10,10,9999,99999,9,999999999,999,0.999,0.0,99,0.2,0.0,0
2026,3,30,13,60,?9?9?9?9,7.7,-1.8,51,99060,9999,9999,9999,425,86,362,999999,999999,999999,9999,204,2.69,10,10,9999,99999,9,999999999,999,0.999,0.0,99,0.2,0.0,0
2026,3,30,14,60,?9?9?9?9,8.6,-2.9,44,99050,9999,9999,9999,560,273,362,999999,999999,999999,9999,247,3.85,10,10,9999,99999,9,999999999,999,0.999,0.0,99,0.2,0.0,0
2026,3,30,15,60,?9?9?9?9,9.6,-3.1,41,99030,9999,9999,9999,523,284,331,999999,999999,999999,9999,255,2.49,10,10,9999,99999,9,999999999,999,0.999,0.0,99,0.2,0.0,0
2026,3,30,16,60,?9?9?9?9,10.9,-2.3,40,99050,9999,9999,9999,555,556,230,999999,999999,999999,9999,276,3.27,10,10,9999,99999,9,999999999,999,0.999,0.0,99,0.2,0.0,0
2026,3,30,17,60,?9?9?9?9,9.9,-1.5,45,99160,9999,9999,9999,372,355,210,999999,999999,999999,9999,285,3.78,7,7,9999,99999,9,999999999,999,0.999,0.0,99,0.2,0.0,0
2026,3,30,18,60,?9?9?9?9,8.1,-1.5,51,99250,9999,9999,9999,240,436,109,999999,999999,999999,9999,299,2.39,4,4,9999,99999,9,999999999,999,0.999,0.0,99,0.2,0.0,0
2026,3,30,19,60,?9?9?9?9,4.3,-1.0,68,99350,9999,9999,9999,83,338,40,999999,999999,999999,9999,337,2.4,7,7,9999,99999,9,999999999,999,0.999,0.0,99,0.2,0.0,0
2026,3,30,20,60,?9?9?9?9,2.8,-0.8,77,99560,9999,9999,9999,2,0,2,999999,999999,999999,9999,348,4.66,9,9,9999,99999,9,999999999,999,0.999,0.0,99,0.2,0.0,0
2026,3,30,21,60,?9?9?9?9,2.4,-1.1,78,99750,9999,9999,9999,0,0,0,999999,999999,999999,9999,351,4.81,10,10,9999,99999,9,999999999,999,0.999,0.0,99,0.2,0.0,0
2026,3,30,22,60,?9?9?9?9,1.6,-2.2,76,99810,9999,9999,9999,0,0,0,999999,999999,999999,9999,357,5.01,10,10,9999,99999,9,999999999,999,0.999,0.0,99,0.2,0.0,0
2026,3,30,23,60,?9?9?9?9,1.0,-3.3,72,99830,9999,9999,9999,0,0,0,999999,999999,999999,9999,1,4.85,10,10,9999,99999,9,999999999,999,0.999,0.0,99,0.2,0.0,0
2026,3,30,24,60,?9?9?9?9,0.6,-4.2,70,99810,9999,9999,9999,0,0,0,999999,999999,999999,9999,8,4.34,10,10,9999,99999,9,999999999,999,0.999,0.0,99,0.2,0.0,0
2026,3,31,1,60,?9?9?9?9,0.1,-4.8,69,99880,9999,9999,9999,0,0,0,999999,999999,999999,9999,23,2.87,10,10,9999,99999,9,999999999,999,0.999,0.0,99,0.2,0.0,0
2026,3,31,2,60,?9?9?9?9,0.6,-4.6,68,99920,9999,9999,9999,0,0,0,999999,999999,999999,9999,41,1.52,10,10,9999,99999,9,999999999,999,0.999,0.0,99,0.2,0.0,0
2026,3,31,3,60,?9?9?9?9,-0.3,-4.9,71,99900,9999,9999,9999,0,0,0,999999,999999,999999,9999,61,1.25,10,10,9999,99999,9,999999999,999,0.999,0.001,99,0.2,0.1,1
2026,3,31,4,60,?9?9?9?9,-2.0,-5.6,76,99850,9999,9999,9999,0,0,0,999999,999999,999999,9999,34,1.33,10,10,9999,99999,9,999999999,999,0.999,0.001,99,0.2,0.1,1
2026,3,31,5,60,?9?9?9?9,-1.2,-4.5,78,99870,9999,9999,9999,0,0,0,999999,999999,999999,9999,19,2.28,10,10,9999,99999,9,999999999,999,0.999,0.001,99,0.2,0.1,1
2026,3,31,6,60,?9?9?9?9,-1.1,-3.9,82,99910,9999,9999,9999,0,0,0,999999,999999,999999,9999,36,2.47,10,10,9999,99999,9,999999999,999,0.999,0.003,99,0.2,0.4,1
2026,3,31,7,60,?9?9?9?9,-1.2,-3.4,85,99940,9999,9999,9999,1,0,1,999999,999999,999999,9999,40,3.02,10,10,9999,99999,9,999999999,999,0.999,0.005,99,0.2,0.7,1
2026,3,31,8,60,?9?9?9?9,-1.1,-2.6,90,99960,9999,9999,9999,28,0,28,999999,999999,999999,9999,53,2.64,10,10,9999,99999,9,999999999,999,0.999,0.005,99,0.2,0.7,1
2026,3,31,9,60,?9?9?9?9,-0.6,-2.9,85,99900,9999,9999,9999,103,0,103,999999,999999,999999,9999,60,3.22,10,10,9999,99999,9,999999999,999,0.999,0.002,99,0.2,0.3,1
2026,3,31,10,60,?9?9?9?9,0.2,-3.2,78,99880,9999,9999,9999,249,60,220,999999,999999,999999,9999,61,3.56,10,10,9999,99999,9,999999999,999,0.999,0.001,99,0.2,0.1,1
2026,3,31,11,60,?9?9?9?9,0.9,-3.7,71,99870,9999,9999,9999,419,152,327,999999,999999,999999,9999,56,3.67,10,10,9999,99999,9,999999999,999,0.999,0.0,99,0.2,0.0,0
2026,3,31,12,60,?9?9?9?9,0.9,-4.0,70,99910,9999,9999,9999,272,7,267,999999,999999,999999,9999,44,3.75,10,10,9999,99999,9,999999999,999,0.999,0.0,99,0.2,0.0,0
2026,3,31,13,60,?9?9?9?9,1.1,-4.0,69,99820,9999,9999,9999,231,1,230,999999,999999,999999,9999,62,3.69,10,10,9999,99999,9,999999999,999,0.999,0.0,99,0.2,0.0,0
2026,3,31,14,60,?9?9?9?9,1.2,-3.8,69,99770,9999,9999,9999,463,101,389,999999,999999,999999,9999,50,4.05,10,10,9999,99999,9,999999999,999,0.999,0.0,99,0.2,0.0,0
2026,3,31,15,60,?9?9?9?9,1.3,-4.0,68,99700,9999,9999,9999,219,3,217,999999,999999,999999,9999,58,4.0,10,10,9999,99999,9,999999999,999,0.999,0.0,99,0.2,0.0,0
2026,3,31,16,60,?9?9?9?9,1.3,-3.8,69,99590,9999,9999,9999,213,29,196,999999,999999,999999,9999,66,4.01,10,10,9999,99999,9,999999999,999,0.999,0.0,99,0.2,0.0,0
2026,3,31,17,60,?9?9?9?9,0.9,-3.6,72,99550,9999,9999,9999,163,22,153,999999,999999,999999,9999,63,4.2,10,10,9999,99999,9,999999999,999,0.999,0.0,99,0.2,0.0,0
2026,3,31,18,60,?9?9?9?9,0.6,-3.2,76,99570,9999,9999,9999,84,10,81,999999,999999,999999,9999,52,3.6,10,10,9999,99999,9,999999999,999,0.999,0.0,99,0.2,0.0,0
2026,3,31,19,60,?9?9?9?9,0.2,-2.9,80,99500,9999,9999,9999,16,0,16,999999,999999,999999,9999,44,4.03,10,10,9999,99999,9,999999999,999,0.999,0.0,99,0.2,0.1,1
2026,3,31,20,60,?9?9?9?9,-0.4,-2.0,89,99440,9999,9999,9999,0,0,0,999999,999999,999999,9999,22,5.52,10,10,9999,99999,9,999999999,999,0.999,0.0,99,0.2,0.1,1
2026,3,31,21,60,?9?9?9?9,-0.6,-1.7,92,99380,9999,9999,9999,0,0,0,999999,999999,999999,9999,42,4.85,10,10,9999,99999,9,999999999,999,0.999,0.038,99,0.2,5.4,1
2026,3,31,22,60,?9?9?9?9,-0.5,-1.5,93,99300,9999,9999,9999,0,0,0,999999,999999,999999,9999,49,4.57,10,10,9999,99999,9,999999999,999,0.999,0.014,99,0.2,2.3,1
2026,3,31,23,60,?9?9?9?9,-0.4,-1.6,92,99260,9999,9999,9999,0,0,0,999999,999999,999999,9999,43,4.32,10,10,9999,99999,9,999999999,999,0.999,0.002,99,0.2,0.7,1
2026,3,31,24,60,?9?9?9?9,-0.4,-1.8,91,99270,9999,9999,9999,0,0,0,999999,999999,999999,9999,37,3.68,10,10,9999,99999,9,999999999,999,0.999,0.0,99,0.2,0.3,1
2026,4,1,1,60,?9?9?9?9,-0.3,-1.9,90,99260,9999,9999,9999,0,0,0,999999,999999,999999,9999,26,3.78,10,10,9999,99999,9,999999999,999,0.999,0.001,99,0.2,0.1,1
2026,4,1,2,60,?9?9?9?9,-0.2,-2.0,88,99260,9999,9999,9999,0,0,0,999999,999999,999999,9999,26,3.62,10,10,9999,99999,9,999999999,999,0.999,0.0,99,0.2,0.0,0
2026,4,1,3,60,?9?9?9?9,0.0,-2.0,87,99280,9999,9999,9999,0,0,0,999999,999999,999999,9999,12,3.37,10,10,9999,99999,9,999999999,999,0.999,0.0,99,0.2,0.0,0
2026,4,1,4,60,?9?9?9?9,-0.2,-2.1,87,99310,9999,9999,9999,0,0,0,999999,999999,999999,9999,359,2.65,10,10,9999,99999,9,999999999,999,0.999,0.0,99,0.2,0.0,0
2026,4,1,5,60,?9?9?9?9,-0.8,-2.8,86,99390,9999,9999,9999,0,0,0,999999,999999,999999,9999,344,3.07,10,10,9999,99999,9,999999999,999,0.999,0.0,99,0.2,0.0,0
2026,4,1,6,60,?9?9?9?9,-1.2,-3.5,84,99490,9999,9999,9999,0,0,0,999999,999999,999999,9999,337,3.32,10,10,9999,99999,9,999999999,999,0.999,0.0,99,0.2,0.0,0
2026,4,1,7,60,?9?9?9?9,-1.4,-4.0,82,99640,9999,9999,9999,4,0,4,999999,999999,999999,9999,335,3.8,10,10,9999,99999,9,999999999,999,0.999,0.0,99,0.2,0.0,0
2026,4,1,8,60,?9?9?9?9,-1.9,-4.4,83,99850,9999,9999,9999,55,18,52,999999,999999,999999,9999,335,3.85,10,10,9999,99999,9,999999999,999,0.999,0.0,99,0.2,0.0,0
2026,4,1,9,60,?9?9?9?9,-1.9,-5.4,77,99980,9999,9999,9999,107,9,104,999999,999999,999999,9999,337,4.23,10,10,9999,99999,9,999999999,999,0.999,0.0,99,0.2,0.0,0
2026,4,1,10,60,?9?9?9?9,-1.7,-6.1,72,100160,9999,9999,9999,207,18,198,999999,999999,999999,9999,340,4.43,10,10,9999,99999,9,999999999,999,0.999,0.0,99,0.2,0.0,0
2026,4,1,11,60,?9?9?9?9,-1.2,-6.5,67,100280,9999,9999,9999,328,49,298,999999,999999,999999,9999,343,4.67,10,10,9999,99999,9,999999999,999,0.999,0.0,99,0.2,0.0,0
2026,4,1,12,60,?9?9?9?9,0.8,-6.6,58,100360,9999,9999,9999,770,862,170,999999,999999,999999,9999,342,4.78,9,9,9999,99999,9,999999999,999,0.999,0.0,99,0.2,0.0,0
2026,4,1,13,60,?9?9?9?9,1.8,-6.8,53,100410,9999,9999,9999,791,834,175,999999,999999,999999,9999,342,4.95,6,6,9999,99999,9,999999999,999,0.999,0.0,99,0.2,0.0,0
2026,4,1,14,60,?9?9?9?9,1.6,-7.1,53,100590,9999,9999,9999,803,902,140,999999,999999,999999,9999,343,4.87,6,6,9999,99999,9,999999999,999,0.999,0.0,99,0.2,0.0,0
2026,4,1,15,60,?9?9?9?9,2.6,-7.4,48,100670,9999,9999,9999,732,821,169,999999,999999,999999,9999,343,4.49,9,9,9999,99999,9,999999999,999,0.999,0.0,99,0.2,0.0,0
2026,4,1,16,60,?9?9?9?9,3.2,-7.6,45,100740,9999,9999,9999,605,740,166,999999,999999,999999,9999,345,4.04,9,9,9999,99999,9,999999999,999,0.999,0.0,99,0.2,0.0,0
2026,4,1,17,60,?9?9?9?9,2.8,-8.0,45,100820,9999,9999,9999,474,818,94,999999,999999,999999,9999,350,3.35,10,10,9999,99999,9,999999999,999,0.999,0.0,99,0.2,0.0,0
2026,4,1,18,60,?9?9?9?9,2.0,-7.6,49,100860,9999,9999,9999,282,649,82,999999,999999,999999,9999,355,2.36,10,10,9999,99999,9,999999999,999,0.999,0.0,99,0.2,0.0,0
2026,4,1,19,60,?9?9?9?9,-1.6,-7.8,62,100930,9999,9999,9999,96,356,48,999999,999999,999999,9999,360,1.7,0,0,9999,99999,9,999999999,999,0.999,0.0,99,0.2,0.0,0
2026,4,1,20,60,?9?9?9?9,-4.6,-8.8,72,101090,9999,9999,9999,3,24,2,999999,999999,999999,9999,333,1.79,0,0,9999,99999,9,999999999,999,0.999,0.0,99,0.2,0.0,0
2026,4,1,21,60,?9?9?9?9,-4.8,-8.1,78,101210,9999,9999,9999,0,0,0,999999,999999,999999,9999,334,2.5,4,4,9999,99999,9,999999999,999,0.999,0.0,99,0.2,0.0,0
2026,4,1,22,60,?9?9?9?9,-5.2,-8.4,78,101270,9999,9999,9999,0,0,0,999999,999999,999999,9999,339,3.42,1,1,9999,99999,9,999999999,999,0.999,0.0,99,0.2,0.0,0
2026,4,1,23,60,?9?9?9?9,-5.4,-8.9,76,101320,9999,9999,9999,0,0,0,999999,999999,999999,9999,350,3.5,10,10,9999,99999,9,999999999,999,0.999,0.0,99,0.2,0.0,0
2026,4,1,24,60,?9?9?9?9,-6.0,-9.4,77,101350,9999,9999,9999,0,0,0,999999,999999,999999,9999,353,3.52,1,1,9999,99999,9,999999999,999,0.999,0.0,99,0.2,0.0,0
